POSCAR for slab defined by SURFACE card and Nslab and Vacuum_thickness_in_Angstrom in wt.in by WannierTools
1.0
   17.043381    0.000000    0.000000
    0.000000    2.460000    0.000000
    0.000000    0.000000  110.583544
C     
   160
Cartesian
    3.550699    1.230000   14.791772        C
    3.550699    1.230000   24.791772        C
    3.550699    1.230000   34.791772        C
    3.550699    1.230000   44.791772        C
    3.550699    1.230000   54.791772        C
    3.550699    1.230000   64.791772        C
    3.550699    1.230000   74.791772        C
    3.550699    1.230000   84.791772        C
    3.550699    1.230000   94.791772        C
    3.550699    1.230000  104.791772        C
    7.811544    1.230000   14.791772        C
    7.811544    1.230000   24.791772        C
    7.811544    1.230000   34.791772        C
    7.811544    1.230000   44.791772        C
    7.811544    1.230000   54.791772        C
    7.811544    1.230000   64.791772        C
    7.811544    1.230000   74.791772        C
    7.811544    1.230000   84.791772        C
    7.811544    1.230000   94.791772        C
    7.811544    1.230000  104.791772        C
   12.072389    1.230000   14.791772        C
   12.072389    1.230000   24.791772        C
   12.072389    1.230000   34.791772        C
   12.072389    1.230000   44.791772        C
   12.072389    1.230000   54.791772        C
   12.072389    1.230000   64.791772        C
   12.072389    1.230000   74.791772        C
   12.072389    1.230000   84.791772        C
   12.072389    1.230000   94.791772        C
   12.072389    1.230000  104.791772        C
   16.333234    1.230000   14.791772        C
   16.333234    1.230000   24.791772        C
   16.333234    1.230000   34.791772        C
   16.333234    1.230000   44.791772        C
   16.333234    1.230000   54.791772        C
   16.333234    1.230000   64.791772        C
   16.333234    1.230000   74.791772        C
   16.333234    1.230000   84.791772        C
   16.333234    1.230000   94.791772        C
   16.333234    1.230000  104.791772        C
    1.420276    0.000000   14.791772        C
    1.420276    0.000000   24.791772        C
    1.420276    0.000000   34.791772        C
    1.420276    0.000000   44.791772        C
    1.420276    0.000000   54.791772        C
    1.420276    0.000000   64.791772        C
    1.420276    0.000000   74.791772        C
    1.420276    0.000000   84.791772        C
    1.420276    0.000000   94.791772        C
    1.420276    0.000000  104.791772        C
    5.681121    0.000000   14.791772        C
    5.681121    0.000000   24.791772        C
    5.681121    0.000000   34.791772        C
    5.681121    0.000000   44.791772        C
    5.681121    0.000000   54.791772        C
    5.681121    0.000000   64.791772        C
    5.681121    0.000000   74.791772        C
    5.681121    0.000000   84.791772        C
    5.681121    0.000000   94.791772        C
    5.681121    0.000000  104.791772        C
    9.941967    0.000000   14.791772        C
    9.941967    0.000000   24.791772        C
    9.941967    0.000000   34.791772        C
    9.941967    0.000000   44.791772        C
    9.941967    0.000000   54.791772        C
    9.941967    0.000000   64.791772        C
    9.941967    0.000000   74.791772        C
    9.941967    0.000000   84.791772        C
    9.941967    0.000000   94.791772        C
    9.941967    0.000000  104.791772        C
   14.202812    0.000000   14.791772        C
   14.202812    0.000000   24.791772        C
   14.202812    0.000000   34.791772        C
   14.202812    0.000000   44.791772        C
   14.202812    0.000000   54.791772        C
   14.202812    0.000000   64.791772        C
   14.202812    0.000000   74.791772        C
   14.202812    0.000000   84.791772        C
   14.202812    0.000000   94.791772        C
   14.202812    0.000000  104.791772        C
    0.710147    1.230000   14.791772        C
    0.710147    1.230000   24.791772        C
    0.710147    1.230000   34.791772        C
    0.710147    1.230000   44.791772        C
    0.710147    1.230000   54.791772        C
    0.710147    1.230000   64.791772        C
    0.710147    1.230000   74.791772        C
    0.710147    1.230000   84.791772        C
    0.710147    1.230000   94.791772        C
    0.710147    1.230000  104.791772        C
    4.970992    1.230000   14.791772        C
    4.970992    1.230000   24.791772        C
    4.970992    1.230000   34.791772        C
    4.970992    1.230000   44.791772        C
    4.970992    1.230000   54.791772        C
    4.970992    1.230000   64.791772        C
    4.970992    1.230000   74.791772        C
    4.970992    1.230000   84.791772        C
    4.970992    1.230000   94.791772        C
    4.970992    1.230000  104.791772        C
    9.231837    1.230000   14.791772        C
    9.231837    1.230000   24.791772        C
    9.231837    1.230000   34.791772        C
    9.231837    1.230000   44.791772        C
    9.231837    1.230000   54.791772        C
    9.231837    1.230000   64.791772        C
    9.231837    1.230000   74.791772        C
    9.231837    1.230000   84.791772        C
    9.231837    1.230000   94.791772        C
    9.231837    1.230000  104.791772        C
   13.492682    1.230000   14.791772        C
   13.492682    1.230000   24.791772        C
   13.492682    1.230000   34.791772        C
   13.492682    1.230000   44.791772        C
   13.492682    1.230000   54.791772        C
   13.492682    1.230000   64.791772        C
   13.492682    1.230000   74.791772        C
   13.492682    1.230000   84.791772        C
   13.492682    1.230000   94.791772        C
   13.492682    1.230000  104.791772        C
    2.840569    0.000000   14.791772        C
    2.840569    0.000000   24.791772        C
    2.840569    0.000000   34.791772        C
    2.840569    0.000000   44.791772        C
    2.840569    0.000000   54.791772        C
    2.840569    0.000000   64.791772        C
    2.840569    0.000000   74.791772        C
    2.840569    0.000000   84.791772        C
    2.840569    0.000000   94.791772        C
    2.840569    0.000000  104.791772        C
    7.101414    0.000000   14.791772        C
    7.101414    0.000000   24.791772        C
    7.101414    0.000000   34.791772        C
    7.101414    0.000000   44.791772        C
    7.101414    0.000000   54.791772        C
    7.101414    0.000000   64.791772        C
    7.101414    0.000000   74.791772        C
    7.101414    0.000000   84.791772        C
    7.101414    0.000000   94.791772        C
    7.101414    0.000000  104.791772        C
   11.362260    0.000000   14.791772        C
   11.362260    0.000000   24.791772        C
   11.362260    0.000000   34.791772        C
   11.362260    0.000000   44.791772        C
   11.362260    0.000000   54.791772        C
   11.362260    0.000000   64.791772        C
   11.362260    0.000000   74.791772        C
   11.362260    0.000000   84.791772        C
   11.362260    0.000000   94.791772        C
   11.362260    0.000000  104.791772        C
   15.623105    0.000000   14.791772        C
   15.623105    0.000000   24.791772        C
   15.623105    0.000000   34.791772        C
   15.623105    0.000000   44.791772        C
   15.623105    0.000000   54.791772        C
   15.623105    0.000000   64.791772        C
   15.623105    0.000000   74.791772        C
   15.623105    0.000000   84.791772        C
   15.623105    0.000000   94.791772        C
   15.623105    0.000000  104.791772        C
