POSCAR for generated by WannierTools
1.0
    2.460000    0.000000    0.000000
   -1.230000    2.130423    0.000000
    0.000000    0.000000   10.000000
C     
     2
Direct
    0.333333    0.666667    0.000000        C
    0.666667    0.333333    0.000000        C
