New structure
1.0
       12.7825355530         0.0000000000         0.0000000000
        0.0000000000         7.3799996376         0.0000000000
        0.0000000000         0.0000000000        10.0000000000
    C
   36
Cartesian
     0.710140822         1.229999866         0.000000000
     0.710140822         3.689999819         0.000000000
     0.710140822         6.149999551         0.000000000
     1.420281358         2.459999953         0.000000000
     1.420281358         0.000000000         0.000000000
     1.420281358         4.919999905         0.000000000
     2.840563287         2.459999953         0.000000000
     2.840563287         4.919999905         0.000000000
     2.840563287         0.000000000         0.000000000
     3.550704109         1.229999976         0.000000000
     3.550704109         3.689999819         0.000000000
     3.550704109         6.149999551         0.000000000
     4.970986133         3.689999819         0.000000000
     4.970986133         1.229999866         0.000000000
     4.970986133         6.149999551         0.000000000
     5.681126574         0.000000000         0.000000000
     5.681126574         4.919999905         0.000000000
     5.681126574         2.459999953         0.000000000
     7.101408217         0.000000000         0.000000000
     7.101408217         2.459999953         0.000000000
     7.101408217         4.919999905         0.000000000
     7.811549420         3.689999819         0.000000000
     7.811549420         1.229999976         0.000000000
     7.811549420         6.149999551         0.000000000
     9.231831063         3.689999819         0.000000000
     9.231831063         6.149999551         0.000000000
     9.231831063         1.229999866         0.000000000
     9.941971504         0.000000000         0.000000000
     9.941971504         2.459999953         0.000000000
     9.941971504         4.919999905         0.000000000
    11.362253910         2.459999953         0.000000000
    11.362253910         0.000000000         0.000000000
    11.362253910         4.919999905         0.000000000
    12.072394350         3.689999819         0.000000000
    12.072394350         6.149999551         0.000000000
    12.072394350         1.229999976         0.000000000
