POSCAR for slab defined by SURFACE card and Nslab and Vacuum_thickness_in_Angstrom in wt.in by WannierTools
1.0
    9.840000    0.000000    0.000000
   -1.230000    2.130423    0.000000
    0.000000    0.000000  110.583544
C     
    80
Cartesian
   -0.000004    1.420283   14.791772        C
   -0.000004    1.420283   24.791772        C
   -0.000004    1.420283   34.791772        C
   -0.000004    1.420283   44.791772        C
   -0.000004    1.420283   54.791772        C
   -0.000004    1.420283   64.791772        C
   -0.000004    1.420283   74.791772        C
   -0.000004    1.420283   84.791772        C
   -0.000004    1.420283   94.791772        C
   -0.000004    1.420283  104.791772        C
    2.459996    1.420283   14.791772        C
    2.459996    1.420283   24.791772        C
    2.459996    1.420283   34.791772        C
    2.459996    1.420283   44.791772        C
    2.459996    1.420283   54.791772        C
    2.459996    1.420283   64.791772        C
    2.459996    1.420283   74.791772        C
    2.459996    1.420283   84.791772        C
    2.459996    1.420283   94.791772        C
    2.459996    1.420283  104.791772        C
    4.919996    1.420283   14.791772        C
    4.919996    1.420283   24.791772        C
    4.919996    1.420283   34.791772        C
    4.919996    1.420283   44.791772        C
    4.919996    1.420283   54.791772        C
    4.919996    1.420283   64.791772        C
    4.919996    1.420283   74.791772        C
    4.919996    1.420283   84.791772        C
    4.919996    1.420283   94.791772        C
    4.919996    1.420283  104.791772        C
    7.379996    1.420283   14.791772        C
    7.379996    1.420283   24.791772        C
    7.379996    1.420283   34.791772        C
    7.379996    1.420283   44.791772        C
    7.379996    1.420283   54.791772        C
    7.379996    1.420283   64.791772        C
    7.379996    1.420283   74.791772        C
    7.379996    1.420283   84.791772        C
    7.379996    1.420283   94.791772        C
    7.379996    1.420283  104.791772        C
    1.230004    0.710140   14.791772        C
    1.230004    0.710140   24.791772        C
    1.230004    0.710140   34.791772        C
    1.230004    0.710140   44.791772        C
    1.230004    0.710140   54.791772        C
    1.230004    0.710140   64.791772        C
    1.230004    0.710140   74.791772        C
    1.230004    0.710140   84.791772        C
    1.230004    0.710140   94.791772        C
    1.230004    0.710140  104.791772        C
    3.690004    0.710140   14.791772        C
    3.690004    0.710140   24.791772        C
    3.690004    0.710140   34.791772        C
    3.690004    0.710140   44.791772        C
    3.690004    0.710140   54.791772        C
    3.690004    0.710140   64.791772        C
    3.690004    0.710140   74.791772        C
    3.690004    0.710140   84.791772        C
    3.690004    0.710140   94.791772        C
    3.690004    0.710140  104.791772        C
    6.150004    0.710140   14.791772        C
    6.150004    0.710140   24.791772        C
    6.150004    0.710140   34.791772        C
    6.150004    0.710140   44.791772        C
    6.150004    0.710140   54.791772        C
    6.150004    0.710140   64.791772        C
    6.150004    0.710140   74.791772        C
    6.150004    0.710140   84.791772        C
    6.150004    0.710140   94.791772        C
    6.150004    0.710140  104.791772        C
    8.610004    0.710140   14.791772        C
    8.610004    0.710140   24.791772        C
    8.610004    0.710140   34.791772        C
    8.610004    0.710140   44.791772        C
    8.610004    0.710140   54.791772        C
    8.610004    0.710140   64.791772        C
    8.610004    0.710140   74.791772        C
    8.610004    0.710140   84.791772        C
    8.610004    0.710140   94.791772        C
    8.610004    0.710140  104.791772        C
