New structure
1.0
        2.4600000381         0.0000000000         0.0000000000
        1.2299998772         2.1304226082         0.0000000000
        0.0000000000         0.0000000000        10.0000000000
    C
    2
Direct
     0.000000000         0.000000000         0.000000000
     0.333333343         0.333333343         0.000000000
