New structure
1.0
      196.8000030518         0.0000000000         0.0000000000
       -1.2300003028         2.1304223626         0.0000000000
        0.0000000000         0.0000000000        10.0000000000
    C
  160
Direct
     0.004166667         0.666666687         0.000000000
     0.504166663         0.666666687         0.000000000
     0.016666668         0.666666687         0.000000000
     0.516666651         0.666666687         0.000000000
     0.029166667         0.666666687         0.000000000
     0.529166639         0.666666687         0.000000000
     0.041666668         0.666666687         0.000000000
     0.541666687         0.666666687         0.000000000
     0.054166667         0.666666687         0.000000000
     0.554166675         0.666666687         0.000000000
     0.066666670         0.666666687         0.000000000
     0.566666663         0.666666687         0.000000000
     0.079166666         0.666666687         0.000000000
     0.579166651         0.666666687         0.000000000
     0.091666669         0.666666687         0.000000000
     0.591666698         0.666666687         0.000000000
     0.104166664         0.666666687         0.000000000
     0.604166687         0.666666687         0.000000000
     0.116666667         0.666666687         0.000000000
     0.616666675         0.666666687         0.000000000
     0.129166663         0.666666687         0.000000000
     0.629166663         0.666666687         0.000000000
     0.141666666         0.666666687         0.000000000
     0.641666651         0.666666687         0.000000000
     0.154166669         0.666666687         0.000000000
     0.654166698         0.666666687         0.000000000
     0.166666672         0.666666687         0.000000000
     0.666666687         0.666666687         0.000000000
     0.179166660         0.666666687         0.000000000
     0.679166675         0.666666687         0.000000000
     0.191666663         0.666666687         0.000000000
     0.691666663         0.666666687         0.000000000
     0.204166666         0.666666687         0.000000000
     0.704166651         0.666666687         0.000000000
     0.216666669         0.666666687         0.000000000
     0.716666698         0.666666687         0.000000000
     0.229166672         0.666666687         0.000000000
     0.729166687         0.666666687         0.000000000
     0.241666660         0.666666687         0.000000000
     0.741666675         0.666666687         0.000000000
     0.254166663         0.666666687         0.000000000
     0.754166663         0.666666687         0.000000000
     0.266666681         0.666666687         0.000000000
     0.766666651         0.666666687         0.000000000
     0.279166669         0.666666687         0.000000000
     0.779166698         0.666666687         0.000000000
     0.291666657         0.666666687         0.000000000
     0.791666627         0.666666687         0.000000000
     0.304166675         0.666666687         0.000000000
     0.804166675         0.666666687         0.000000000
     0.316666663         0.666666687         0.000000000
     0.816666663         0.666666687         0.000000000
     0.329166681         0.666666687         0.000000000
     0.829166651         0.666666687         0.000000000
     0.341666669         0.666666687         0.000000000
     0.841666698         0.666666687         0.000000000
     0.354166657         0.666666687         0.000000000
     0.854166627         0.666666687         0.000000000
     0.366666675         0.666666687         0.000000000
     0.866666675         0.666666687         0.000000000
     0.379166663         0.666666687         0.000000000
     0.879166663         0.666666687         0.000000000
     0.391666681         0.666666687         0.000000000
     0.891666651         0.666666687         0.000000000
     0.404166669         0.666666687         0.000000000
     0.904166698         0.666666687         0.000000000
     0.416666657         0.666666687         0.000000000
     0.916666627         0.666666687         0.000000000
     0.429166675         0.666666687         0.000000000
     0.929166675         0.666666687         0.000000000
     0.441666663         0.666666687         0.000000000
     0.941666663         0.666666687         0.000000000
     0.454166681         0.666666687         0.000000000
     0.954166651         0.666666687         0.000000000
     0.466666669         0.666666687         0.000000000
     0.966666698         0.666666687         0.000000000
     0.479166657         0.666666687         0.000000000
     0.979166627         0.666666687         0.000000000
     0.491666675         0.666666687         0.000000000
     0.991666675         0.666666687         0.000000000
     0.008333333         0.333333313         0.000000000
     0.508333325         0.333333313         0.000000000
     0.020833332         0.333333313         0.000000000
     0.520833313         0.333333313         0.000000000
     0.033333331         0.333333313         0.000000000
     0.533333302         0.333333313         0.000000000
     0.045833334         0.333333313         0.000000000
     0.545833349         0.333333313         0.000000000
     0.058333334         0.333333313         0.000000000
     0.558333337         0.333333313         0.000000000
     0.070833333         0.333333313         0.000000000
     0.570833325         0.333333313         0.000000000
     0.083333336         0.333333313         0.000000000
     0.583333313         0.333333313         0.000000000
     0.095833331         0.333333313         0.000000000
     0.595833302         0.333333313         0.000000000
     0.108333334         0.333333313         0.000000000
     0.608333349         0.333333313         0.000000000
     0.120833330         0.333333313         0.000000000
     0.620833337         0.333333313         0.000000000
     0.133333325         0.333333313         0.000000000
     0.633333325         0.333333313         0.000000000
     0.145833328         0.333333313         0.000000000
     0.645833313         0.333333313         0.000000000
     0.158333331         0.333333313         0.000000000
     0.658333302         0.333333313         0.000000000
     0.170833334         0.333333313         0.000000000
     0.670833349         0.333333313         0.000000000
     0.183333337         0.333333313         0.000000000
     0.683333337         0.333333313         0.000000000
     0.195833325         0.333333313         0.000000000
     0.695833325         0.333333313         0.000000000
     0.208333328         0.333333313         0.000000000
     0.708333313         0.333333313         0.000000000
     0.220833331         0.333333313         0.000000000
     0.720833302         0.333333313         0.000000000
     0.233333334         0.333333313         0.000000000
     0.733333349         0.333333313         0.000000000
     0.245833337         0.333333313         0.000000000
     0.745833337         0.333333313         0.000000000
     0.258333325         0.333333313         0.000000000
     0.758333325         0.333333313         0.000000000
     0.270833343         0.333333313         0.000000000
     0.770833373         0.333333313         0.000000000
     0.283333331         0.333333313         0.000000000
     0.783333302         0.333333313         0.000000000
     0.295833319         0.333333313         0.000000000
     0.795833349         0.333333313         0.000000000
     0.308333337         0.333333313         0.000000000
     0.808333337         0.333333313         0.000000000
     0.320833325         0.333333313         0.000000000
     0.820833325         0.333333313         0.000000000
     0.333333343         0.333333313         0.000000000
     0.833333373         0.333333313         0.000000000
     0.345833331         0.333333313         0.000000000
     0.845833302         0.333333313         0.000000000
     0.358333319         0.333333313         0.000000000
     0.858333349         0.333333313         0.000000000
     0.370833337         0.333333313         0.000000000
     0.870833337         0.333333313         0.000000000
     0.383333325         0.333333313         0.000000000
     0.883333325         0.333333313         0.000000000
     0.395833343         0.333333313         0.000000000
     0.895833373         0.333333313         0.000000000
     0.408333331         0.333333313         0.000000000
     0.908333302         0.333333313         0.000000000
     0.420833319         0.333333313         0.000000000
     0.920833349         0.333333313         0.000000000
     0.433333337         0.333333313         0.000000000
     0.933333337         0.333333313         0.000000000
     0.445833325         0.333333313         0.000000000
     0.945833325         0.333333313         0.000000000
     0.458333343         0.333333313         0.000000000
     0.958333373         0.333333313         0.000000000
     0.470833331         0.333333313         0.000000000
     0.970833302         0.333333313         0.000000000
     0.483333319         0.333333313         0.000000000
     0.983333349         0.333333313         0.000000000
     0.495833337         0.333333313         0.000000000
     0.995833337         0.333333313         0.000000000
