Rotated POSCAR by SURFACE card in wt.in by WannierTools
1.0
  100.860001    0.000000    0.000000
   -1.230000    2.130423    0.000000
    0.000000    0.000000   10.000000
C     
    82
Direct
    0.008130    0.666667    0.000000        C
    0.032520    0.666667    0.000000        C
    0.056911    0.666667    0.000000        C
    0.081301    0.666667    0.000000        C
    0.105691    0.666667    0.000000        C
    0.130081    0.666667    0.000000        C
    0.154472    0.666667    0.000000        C
    0.178862    0.666667    0.000000        C
    0.203252    0.666667    0.000000        C
    0.227642    0.666667    0.000000        C
    0.252033    0.666667    0.000000        C
    0.276423    0.666667    0.000000        C
    0.300813    0.666667    0.000000        C
    0.325203    0.666667    0.000000        C
    0.349593    0.666667    0.000000        C
    0.373984    0.666667    0.000000        C
    0.398374    0.666667    0.000000        C
    0.422764    0.666667    0.000000        C
    0.447154    0.666667    0.000000        C
    0.471545    0.666667    0.000000        C
    0.495935    0.666667    0.000000        C
    0.520325    0.666667    0.000000        C
    0.544715    0.666667    0.000000        C
    0.569106    0.666667    0.000000        C
    0.593496    0.666667    0.000000        C
    0.617886    0.666667    0.000000        C
    0.642276    0.666667    0.000000        C
    0.666667    0.666667    0.000000        C
    0.691057    0.666667    0.000000        C
    0.715447    0.666667    0.000000        C
    0.739837    0.666667    0.000000        C
    0.764228    0.666667    0.000000        C
    0.788618    0.666667    0.000000        C
    0.813008    0.666667    0.000000        C
    0.837398    0.666667    0.000000        C
    0.861789    0.666667    0.000000        C
    0.886179    0.666667    0.000000        C
    0.910569    0.666667    0.000000        C
    0.934959    0.666667    0.000000        C
    0.959350    0.666667    0.000000        C
    0.983740    0.666667    0.000000        C
    0.016260    0.333333    0.000000        C
    0.040650    0.333333    0.000000        C
    0.065041    0.333333    0.000000        C
    0.089431    0.333333    0.000000        C
    0.113821    0.333333    0.000000        C
    0.138211    0.333333    0.000000        C
    0.162602    0.333333    0.000000        C
    0.186992    0.333333    0.000000        C
    0.211382    0.333333    0.000000        C
    0.235772    0.333333    0.000000        C
    0.260163    0.333333    0.000000        C
    0.284553    0.333333    0.000000        C
    0.308943    0.333333    0.000000        C
    0.333333    0.333333    0.000000        C
    0.357724    0.333333    0.000000        C
    0.382114    0.333333    0.000000        C
    0.406504    0.333333    0.000000        C
    0.430894    0.333333    0.000000        C
    0.455285    0.333333    0.000000        C
    0.479675    0.333333    0.000000        C
    0.504065    0.333333    0.000000        C
    0.528455    0.333333    0.000000        C
    0.552846    0.333333    0.000000        C
    0.577236    0.333333    0.000000        C
    0.601626    0.333333    0.000000        C
    0.626016    0.333333    0.000000        C
    0.650406    0.333333    0.000000        C
    0.674797    0.333333    0.000000        C
    0.699187    0.333333    0.000000        C
    0.723577    0.333333    0.000000        C
    0.747967    0.333333    0.000000        C
    0.772358    0.333333    0.000000        C
    0.796748    0.333333    0.000000        C
    0.821138    0.333333    0.000000        C
    0.845528    0.333333    0.000000        C
    0.869919    0.333333    0.000000        C
    0.894309    0.333333    0.000000        C
    0.918699    0.333333    0.000000        C
    0.943089    0.333333    0.000000        C
    0.967480    0.333333    0.000000        C
    0.991870    0.333333    0.000000        C
