New structure
1.0
      100.8600006104         0.0000000000         0.0000000000
       -1.2300000191         2.1304225263         0.0000000000
        0.0000000000         0.0000000000        10.0000000000
    C
   82
Cartesian
     0.000000031         1.420281727         0.000000000
     2.459999861         1.420281727         0.000000000
     4.920000159         1.420281727         0.000000000
     7.379999707         1.420281727         0.000000000
     9.840000382         1.420281727         0.000000000
    12.299999553         1.420281727         0.000000000
    14.760000228         1.420281727         0.000000000
    17.219999400         1.420281727         0.000000000
    19.680000075         1.420281727         0.000000000
    22.140000749         1.420281727         0.000000000
    24.599999921         1.420281727         0.000000000
    27.060000596         1.420281727         0.000000000
    29.520001271         1.420281727         0.000000000
    31.979998939         1.420281727         0.000000000
    34.439999614         1.420281727         0.000000000
    36.900000289         1.420281727         0.000000000
    39.360000964         1.420281727         0.000000000
    41.820001638         1.420281727         0.000000000
    44.279999307         1.420281727         0.000000000
    46.739999982         1.420281727         0.000000000
    49.200000657         1.420281727         0.000000000
    51.659998325         1.420281727         0.000000000
    54.120002006         1.420281727         0.000000000
    56.579999675         1.420281727         0.000000000
    59.040003355         1.420281727         0.000000000
    61.500001024         1.420281727         0.000000000
    63.959998693         1.420281727         0.000000000
    66.420002374         1.420281727         0.000000000
    68.880000043         1.420281727         0.000000000
    71.339997711         1.420281727         0.000000000
    73.800001392         1.420281727         0.000000000
    76.259999061         1.420281727         0.000000000
    78.720002741         1.420281727         0.000000000
    81.180000410         1.420281727         0.000000000
    83.639998079         1.420281727         0.000000000
    86.100001760         1.420281727         0.000000000
    88.559999428         1.420281727         0.000000000
    91.020003109         1.420281727         0.000000000
    93.480000778         1.420281727         0.000000000
    95.939998447         1.420281727         0.000000000
    98.400002127         1.420281727         0.000000000
     1.229999967         0.710140800         0.000000000
     3.689999890         0.710140800         0.000000000
     6.149999813         0.710140800         0.000000000
     8.609999737         0.710140800         0.000000000
    11.069999660         0.710140800         0.000000000
    13.530000335         0.710140800         0.000000000
    15.989999506         0.710140800         0.000000000
    18.450000181         0.710140800         0.000000000
    20.909999353         0.710140800         0.000000000
    23.370000028         0.710140800         0.000000000
    25.829999199         0.710140800         0.000000000
    28.289999874         0.710140800         0.000000000
    30.750000549         0.710140800         0.000000000
    33.210001223         0.710140800         0.000000000
    35.669998892         0.710140800         0.000000000
    38.129999567         0.710140800         0.000000000
    40.590000242         0.710140800         0.000000000
    43.050000916         0.710140800         0.000000000
    45.510001591         0.710140800         0.000000000
    47.969999260         0.710140800         0.000000000
    50.429999935         0.710140800         0.000000000
    52.889997604         0.710140800         0.000000000
    55.350001284         0.710140800         0.000000000
    57.809998953         0.710140800         0.000000000
    60.270002634         0.710140800         0.000000000
    62.730000302         0.710140800         0.000000000
    65.189997971         0.710140800         0.000000000
    67.650001652         0.710140800         0.000000000
    70.109999321         0.710140800         0.000000000
    72.570003001         0.710140800         0.000000000
    75.030000670         0.710140800         0.000000000
    77.489998339         0.710140800         0.000000000
    79.950002020         0.710140800         0.000000000
    82.409999688         0.710140800         0.000000000
    84.870003369         0.710140800         0.000000000
    87.330001038         0.710140800         0.000000000
    89.789998707         0.710140800         0.000000000
    92.250002387         0.710140800         0.000000000
    94.710000056         0.710140800         0.000000000
    97.169997725         0.710140800         0.000000000
    99.630001405         0.710140800         0.000000000
