POSCAR for slab defined by SURFACE card and Nslab and Vacuum_thickness_in_Angstrom in wt.in by WannierTools
1.0
  100.860001    0.000000    0.000000
   -1.230000    2.130422    0.000000
    0.000000    0.000000  110.583544
C     
  2400
Cartesian
   -0.000009    1.420282   14.791772        C
   -0.000009    1.420282   24.791772        C
   -0.000009    1.420282   34.791772        C
   -0.000009    1.420282   44.791772        C
   -0.000009    1.420282   54.791772        C
   -0.000009    1.420282   64.791772        C
   -0.000009    1.420282   74.791772        C
   -0.000009    1.420282   84.791772        C
   -0.000009    1.420282   94.791772        C
   -0.000009    1.420282  104.791772        C
   98.400017    1.420282   14.791772        C
   98.400017    1.420282   24.791772        C
   98.400017    1.420282   34.791772        C
   98.400017    1.420282   44.791772        C
   98.400017    1.420282   54.791772        C
   98.400017    1.420282   64.791772        C
   98.400017    1.420282   74.791772        C
   98.400017    1.420282   84.791772        C
   98.400017    1.420282   94.791772        C
   98.400017    1.420282  104.791772        C
   95.940042    1.420282   14.791772        C
   95.940042    1.420282   24.791772        C
   95.940042    1.420282   34.791772        C
   95.940042    1.420282   44.791772        C
   95.940042    1.420282   54.791772        C
   95.940042    1.420282   64.791772        C
   95.940042    1.420282   74.791772        C
   95.940042    1.420282   84.791772        C
   95.940042    1.420282   94.791772        C
   95.940042    1.420282  104.791772        C
    2.459967    1.420282   14.791772        C
    2.459967    1.420282   24.791772        C
    2.459967    1.420282   34.791772        C
    2.459967    1.420282   44.791772        C
    2.459967    1.420282   54.791772        C
    2.459967    1.420282   64.791772        C
    2.459967    1.420282   74.791772        C
    2.459967    1.420282   84.791772        C
    2.459967    1.420282   94.791772        C
    2.459967    1.420282  104.791772        C
   -0.000009    1.420282   14.791772        C
   -0.000009    1.420282   24.791772        C
   -0.000009    1.420282   34.791772        C
   -0.000009    1.420282   44.791772        C
   -0.000009    1.420282   54.791772        C
   -0.000009    1.420282   64.791772        C
   -0.000009    1.420282   74.791772        C
   -0.000009    1.420282   84.791772        C
   -0.000009    1.420282   94.791772        C
   -0.000009    1.420282  104.791772        C
   98.400017    1.420282   14.791772        C
   98.400017    1.420282   24.791772        C
   98.400017    1.420282   34.791772        C
   98.400017    1.420282   44.791772        C
   98.400017    1.420282   54.791772        C
   98.400017    1.420282   64.791772        C
   98.400017    1.420282   74.791772        C
   98.400017    1.420282   84.791772        C
   98.400017    1.420282   94.791772        C
   98.400017    1.420282  104.791772        C
    4.920043    1.420282   14.791772        C
    4.920043    1.420282   24.791772        C
    4.920043    1.420282   34.791772        C
    4.920043    1.420282   44.791772        C
    4.920043    1.420282   54.791772        C
    4.920043    1.420282   64.791772        C
    4.920043    1.420282   74.791772        C
    4.920043    1.420282   84.791772        C
    4.920043    1.420282   94.791772        C
    4.920043    1.420282  104.791772        C
    2.459967    1.420282   14.791772        C
    2.459967    1.420282   24.791772        C
    2.459967    1.420282   34.791772        C
    2.459967    1.420282   44.791772        C
    2.459967    1.420282   54.791772        C
    2.459967    1.420282   64.791772        C
    2.459967    1.420282   74.791772        C
    2.459967    1.420282   84.791772        C
    2.459967    1.420282   94.791772        C
    2.459967    1.420282  104.791772        C
   -0.000009    1.420282   14.791772        C
   -0.000009    1.420282   24.791772        C
   -0.000009    1.420282   34.791772        C
   -0.000009    1.420282   44.791772        C
   -0.000009    1.420282   54.791772        C
   -0.000009    1.420282   64.791772        C
   -0.000009    1.420282   74.791772        C
   -0.000009    1.420282   84.791772        C
   -0.000009    1.420282   94.791772        C
   -0.000009    1.420282  104.791772        C
    7.380019    1.420282   14.791772        C
    7.380019    1.420282   24.791772        C
    7.380019    1.420282   34.791772        C
    7.380019    1.420282   44.791772        C
    7.380019    1.420282   54.791772        C
    7.380019    1.420282   64.791772        C
    7.380019    1.420282   74.791772        C
    7.380019    1.420282   84.791772        C
    7.380019    1.420282   94.791772        C
    7.380019    1.420282  104.791772        C
    4.920043    1.420282   14.791772        C
    4.920043    1.420282   24.791772        C
    4.920043    1.420282   34.791772        C
    4.920043    1.420282   44.791772        C
    4.920043    1.420282   54.791772        C
    4.920043    1.420282   64.791772        C
    4.920043    1.420282   74.791772        C
    4.920043    1.420282   84.791772        C
    4.920043    1.420282   94.791772        C
    4.920043    1.420282  104.791772        C
    2.459967    1.420282   14.791772        C
    2.459967    1.420282   24.791772        C
    2.459967    1.420282   34.791772        C
    2.459967    1.420282   44.791772        C
    2.459967    1.420282   54.791772        C
    2.459967    1.420282   64.791772        C
    2.459967    1.420282   74.791772        C
    2.459967    1.420282   84.791772        C
    2.459967    1.420282   94.791772        C
    2.459967    1.420282  104.791772        C
    9.839994    1.420282   14.791772        C
    9.839994    1.420282   24.791772        C
    9.839994    1.420282   34.791772        C
    9.839994    1.420282   44.791772        C
    9.839994    1.420282   54.791772        C
    9.839994    1.420282   64.791772        C
    9.839994    1.420282   74.791772        C
    9.839994    1.420282   84.791772        C
    9.839994    1.420282   94.791772        C
    9.839994    1.420282  104.791772        C
    7.380019    1.420282   14.791772        C
    7.380019    1.420282   24.791772        C
    7.380019    1.420282   34.791772        C
    7.380019    1.420282   44.791772        C
    7.380019    1.420282   54.791772        C
    7.380019    1.420282   64.791772        C
    7.380019    1.420282   74.791772        C
    7.380019    1.420282   84.791772        C
    7.380019    1.420282   94.791772        C
    7.380019    1.420282  104.791772        C
    4.920043    1.420282   14.791772        C
    4.920043    1.420282   24.791772        C
    4.920043    1.420282   34.791772        C
    4.920043    1.420282   44.791772        C
    4.920043    1.420282   54.791772        C
    4.920043    1.420282   64.791772        C
    4.920043    1.420282   74.791772        C
    4.920043    1.420282   84.791772        C
    4.920043    1.420282   94.791772        C
    4.920043    1.420282  104.791772        C
   12.299969    1.420282   14.791772        C
   12.299969    1.420282   24.791772        C
   12.299969    1.420282   34.791772        C
   12.299969    1.420282   44.791772        C
   12.299969    1.420282   54.791772        C
   12.299969    1.420282   64.791772        C
   12.299969    1.420282   74.791772        C
   12.299969    1.420282   84.791772        C
   12.299969    1.420282   94.791772        C
   12.299969    1.420282  104.791772        C
    9.839994    1.420282   14.791772        C
    9.839994    1.420282   24.791772        C
    9.839994    1.420282   34.791772        C
    9.839994    1.420282   44.791772        C
    9.839994    1.420282   54.791772        C
    9.839994    1.420282   64.791772        C
    9.839994    1.420282   74.791772        C
    9.839994    1.420282   84.791772        C
    9.839994    1.420282   94.791772        C
    9.839994    1.420282  104.791772        C
    7.380019    1.420282   14.791772        C
    7.380019    1.420282   24.791772        C
    7.380019    1.420282   34.791772        C
    7.380019    1.420282   44.791772        C
    7.380019    1.420282   54.791772        C
    7.380019    1.420282   64.791772        C
    7.380019    1.420282   74.791772        C
    7.380019    1.420282   84.791772        C
    7.380019    1.420282   94.791772        C
    7.380019    1.420282  104.791772        C
   14.760046    1.420282   14.791772        C
   14.760046    1.420282   24.791772        C
   14.760046    1.420282   34.791772        C
   14.760046    1.420282   44.791772        C
   14.760046    1.420282   54.791772        C
   14.760046    1.420282   64.791772        C
   14.760046    1.420282   74.791772        C
   14.760046    1.420282   84.791772        C
   14.760046    1.420282   94.791772        C
   14.760046    1.420282  104.791772        C
   12.299969    1.420282   14.791772        C
   12.299969    1.420282   24.791772        C
   12.299969    1.420282   34.791772        C
   12.299969    1.420282   44.791772        C
   12.299969    1.420282   54.791772        C
   12.299969    1.420282   64.791772        C
   12.299969    1.420282   74.791772        C
   12.299969    1.420282   84.791772        C
   12.299969    1.420282   94.791772        C
   12.299969    1.420282  104.791772        C
    9.839994    1.420282   14.791772        C
    9.839994    1.420282   24.791772        C
    9.839994    1.420282   34.791772        C
    9.839994    1.420282   44.791772        C
    9.839994    1.420282   54.791772        C
    9.839994    1.420282   64.791772        C
    9.839994    1.420282   74.791772        C
    9.839994    1.420282   84.791772        C
    9.839994    1.420282   94.791772        C
    9.839994    1.420282  104.791772        C
   17.220021    1.420282   14.791772        C
   17.220021    1.420282   24.791772        C
   17.220021    1.420282   34.791772        C
   17.220021    1.420282   44.791772        C
   17.220021    1.420282   54.791772        C
   17.220021    1.420282   64.791772        C
   17.220021    1.420282   74.791772        C
   17.220021    1.420282   84.791772        C
   17.220021    1.420282   94.791772        C
   17.220021    1.420282  104.791772        C
   14.760046    1.420282   14.791772        C
   14.760046    1.420282   24.791772        C
   14.760046    1.420282   34.791772        C
   14.760046    1.420282   44.791772        C
   14.760046    1.420282   54.791772        C
   14.760046    1.420282   64.791772        C
   14.760046    1.420282   74.791772        C
   14.760046    1.420282   84.791772        C
   14.760046    1.420282   94.791772        C
   14.760046    1.420282  104.791772        C
   12.299969    1.420282   14.791772        C
   12.299969    1.420282   24.791772        C
   12.299969    1.420282   34.791772        C
   12.299969    1.420282   44.791772        C
   12.299969    1.420282   54.791772        C
   12.299969    1.420282   64.791772        C
   12.299969    1.420282   74.791772        C
   12.299969    1.420282   84.791772        C
   12.299969    1.420282   94.791772        C
   12.299969    1.420282  104.791772        C
   19.679997    1.420282   14.791772        C
   19.679997    1.420282   24.791772        C
   19.679997    1.420282   34.791772        C
   19.679997    1.420282   44.791772        C
   19.679997    1.420282   54.791772        C
   19.679997    1.420282   64.791772        C
   19.679997    1.420282   74.791772        C
   19.679997    1.420282   84.791772        C
   19.679997    1.420282   94.791772        C
   19.679997    1.420282  104.791772        C
   17.220021    1.420282   14.791772        C
   17.220021    1.420282   24.791772        C
   17.220021    1.420282   34.791772        C
   17.220021    1.420282   44.791772        C
   17.220021    1.420282   54.791772        C
   17.220021    1.420282   64.791772        C
   17.220021    1.420282   74.791772        C
   17.220021    1.420282   84.791772        C
   17.220021    1.420282   94.791772        C
   17.220021    1.420282  104.791772        C
   14.760046    1.420282   14.791772        C
   14.760046    1.420282   24.791772        C
   14.760046    1.420282   34.791772        C
   14.760046    1.420282   44.791772        C
   14.760046    1.420282   54.791772        C
   14.760046    1.420282   64.791772        C
   14.760046    1.420282   74.791772        C
   14.760046    1.420282   84.791772        C
   14.760046    1.420282   94.791772        C
   14.760046    1.420282  104.791772        C
   22.139972    1.420282   14.791772        C
   22.139972    1.420282   24.791772        C
   22.139972    1.420282   34.791772        C
   22.139972    1.420282   44.791772        C
   22.139972    1.420282   54.791772        C
   22.139972    1.420282   64.791772        C
   22.139972    1.420282   74.791772        C
   22.139972    1.420282   84.791772        C
   22.139972    1.420282   94.791772        C
   22.139972    1.420282  104.791772        C
   19.679997    1.420282   14.791772        C
   19.679997    1.420282   24.791772        C
   19.679997    1.420282   34.791772        C
   19.679997    1.420282   44.791772        C
   19.679997    1.420282   54.791772        C
   19.679997    1.420282   64.791772        C
   19.679997    1.420282   74.791772        C
   19.679997    1.420282   84.791772        C
   19.679997    1.420282   94.791772        C
   19.679997    1.420282  104.791772        C
   17.220021    1.420282   14.791772        C
   17.220021    1.420282   24.791772        C
   17.220021    1.420282   34.791772        C
   17.220021    1.420282   44.791772        C
   17.220021    1.420282   54.791772        C
   17.220021    1.420282   64.791772        C
   17.220021    1.420282   74.791772        C
   17.220021    1.420282   84.791772        C
   17.220021    1.420282   94.791772        C
   17.220021    1.420282  104.791772        C
   24.600048    1.420282   14.791772        C
   24.600048    1.420282   24.791772        C
   24.600048    1.420282   34.791772        C
   24.600048    1.420282   44.791772        C
   24.600048    1.420282   54.791772        C
   24.600048    1.420282   64.791772        C
   24.600048    1.420282   74.791772        C
   24.600048    1.420282   84.791772        C
   24.600048    1.420282   94.791772        C
   24.600048    1.420282  104.791772        C
   22.139972    1.420282   14.791772        C
   22.139972    1.420282   24.791772        C
   22.139972    1.420282   34.791772        C
   22.139972    1.420282   44.791772        C
   22.139972    1.420282   54.791772        C
   22.139972    1.420282   64.791772        C
   22.139972    1.420282   74.791772        C
   22.139972    1.420282   84.791772        C
   22.139972    1.420282   94.791772        C
   22.139972    1.420282  104.791772        C
   19.679997    1.420282   14.791772        C
   19.679997    1.420282   24.791772        C
   19.679997    1.420282   34.791772        C
   19.679997    1.420282   44.791772        C
   19.679997    1.420282   54.791772        C
   19.679997    1.420282   64.791772        C
   19.679997    1.420282   74.791772        C
   19.679997    1.420282   84.791772        C
   19.679997    1.420282   94.791772        C
   19.679997    1.420282  104.791772        C
   27.060024    1.420282   14.791772        C
   27.060024    1.420282   24.791772        C
   27.060024    1.420282   34.791772        C
   27.060024    1.420282   44.791772        C
   27.060024    1.420282   54.791772        C
   27.060024    1.420282   64.791772        C
   27.060024    1.420282   74.791772        C
   27.060024    1.420282   84.791772        C
   27.060024    1.420282   94.791772        C
   27.060024    1.420282  104.791772        C
   24.600048    1.420282   14.791772        C
   24.600048    1.420282   24.791772        C
   24.600048    1.420282   34.791772        C
   24.600048    1.420282   44.791772        C
   24.600048    1.420282   54.791772        C
   24.600048    1.420282   64.791772        C
   24.600048    1.420282   74.791772        C
   24.600048    1.420282   84.791772        C
   24.600048    1.420282   94.791772        C
   24.600048    1.420282  104.791772        C
   22.139972    1.420282   14.791772        C
   22.139972    1.420282   24.791772        C
   22.139972    1.420282   34.791772        C
   22.139972    1.420282   44.791772        C
   22.139972    1.420282   54.791772        C
   22.139972    1.420282   64.791772        C
   22.139972    1.420282   74.791772        C
   22.139972    1.420282   84.791772        C
   22.139972    1.420282   94.791772        C
   22.139972    1.420282  104.791772        C
   29.519999    1.420282   14.791772        C
   29.519999    1.420282   24.791772        C
   29.519999    1.420282   34.791772        C
   29.519999    1.420282   44.791772        C
   29.519999    1.420282   54.791772        C
   29.519999    1.420282   64.791772        C
   29.519999    1.420282   74.791772        C
   29.519999    1.420282   84.791772        C
   29.519999    1.420282   94.791772        C
   29.519999    1.420282  104.791772        C
   27.060024    1.420282   14.791772        C
   27.060024    1.420282   24.791772        C
   27.060024    1.420282   34.791772        C
   27.060024    1.420282   44.791772        C
   27.060024    1.420282   54.791772        C
   27.060024    1.420282   64.791772        C
   27.060024    1.420282   74.791772        C
   27.060024    1.420282   84.791772        C
   27.060024    1.420282   94.791772        C
   27.060024    1.420282  104.791772        C
   24.600048    1.420282   14.791772        C
   24.600048    1.420282   24.791772        C
   24.600048    1.420282   34.791772        C
   24.600048    1.420282   44.791772        C
   24.600048    1.420282   54.791772        C
   24.600048    1.420282   64.791772        C
   24.600048    1.420282   74.791772        C
   24.600048    1.420282   84.791772        C
   24.600048    1.420282   94.791772        C
   24.600048    1.420282  104.791772        C
   31.979974    1.420282   14.791772        C
   31.979974    1.420282   24.791772        C
   31.979974    1.420282   34.791772        C
   31.979974    1.420282   44.791772        C
   31.979974    1.420282   54.791772        C
   31.979974    1.420282   64.791772        C
   31.979974    1.420282   74.791772        C
   31.979974    1.420282   84.791772        C
   31.979974    1.420282   94.791772        C
   31.979974    1.420282  104.791772        C
   29.519999    1.420282   14.791772        C
   29.519999    1.420282   24.791772        C
   29.519999    1.420282   34.791772        C
   29.519999    1.420282   44.791772        C
   29.519999    1.420282   54.791772        C
   29.519999    1.420282   64.791772        C
   29.519999    1.420282   74.791772        C
   29.519999    1.420282   84.791772        C
   29.519999    1.420282   94.791772        C
   29.519999    1.420282  104.791772        C
   27.060024    1.420282   14.791772        C
   27.060024    1.420282   24.791772        C
   27.060024    1.420282   34.791772        C
   27.060024    1.420282   44.791772        C
   27.060024    1.420282   54.791772        C
   27.060024    1.420282   64.791772        C
   27.060024    1.420282   74.791772        C
   27.060024    1.420282   84.791772        C
   27.060024    1.420282   94.791772        C
   27.060024    1.420282  104.791772        C
   34.439950    1.420282   14.791772        C
   34.439950    1.420282   24.791772        C
   34.439950    1.420282   34.791772        C
   34.439950    1.420282   44.791772        C
   34.439950    1.420282   54.791772        C
   34.439950    1.420282   64.791772        C
   34.439950    1.420282   74.791772        C
   34.439950    1.420282   84.791772        C
   34.439950    1.420282   94.791772        C
   34.439950    1.420282  104.791772        C
   31.979974    1.420282   14.791772        C
   31.979974    1.420282   24.791772        C
   31.979974    1.420282   34.791772        C
   31.979974    1.420282   44.791772        C
   31.979974    1.420282   54.791772        C
   31.979974    1.420282   64.791772        C
   31.979974    1.420282   74.791772        C
   31.979974    1.420282   84.791772        C
   31.979974    1.420282   94.791772        C
   31.979974    1.420282  104.791772        C
   29.519999    1.420282   14.791772        C
   29.519999    1.420282   24.791772        C
   29.519999    1.420282   34.791772        C
   29.519999    1.420282   44.791772        C
   29.519999    1.420282   54.791772        C
   29.519999    1.420282   64.791772        C
   29.519999    1.420282   74.791772        C
   29.519999    1.420282   84.791772        C
   29.519999    1.420282   94.791772        C
   29.519999    1.420282  104.791772        C
   36.900026    1.420282   14.791772        C
   36.900026    1.420282   24.791772        C
   36.900026    1.420282   34.791772        C
   36.900026    1.420282   44.791772        C
   36.900026    1.420282   54.791772        C
   36.900026    1.420282   64.791772        C
   36.900026    1.420282   74.791772        C
   36.900026    1.420282   84.791772        C
   36.900026    1.420282   94.791772        C
   36.900026    1.420282  104.791772        C
   34.440051    1.420282   14.791772        C
   34.440051    1.420282   24.791772        C
   34.440051    1.420282   34.791772        C
   34.440051    1.420282   44.791772        C
   34.440051    1.420282   54.791772        C
   34.440051    1.420282   64.791772        C
   34.440051    1.420282   74.791772        C
   34.440051    1.420282   84.791772        C
   34.440051    1.420282   94.791772        C
   34.440051    1.420282  104.791772        C
   31.979974    1.420282   14.791772        C
   31.979974    1.420282   24.791772        C
   31.979974    1.420282   34.791772        C
   31.979974    1.420282   44.791772        C
   31.979974    1.420282   54.791772        C
   31.979974    1.420282   64.791772        C
   31.979974    1.420282   74.791772        C
   31.979974    1.420282   84.791772        C
   31.979974    1.420282   94.791772        C
   31.979974    1.420282  104.791772        C
   39.360002    1.420282   14.791772        C
   39.360002    1.420282   24.791772        C
   39.360002    1.420282   34.791772        C
   39.360002    1.420282   44.791772        C
   39.360002    1.420282   54.791772        C
   39.360002    1.420282   64.791772        C
   39.360002    1.420282   74.791772        C
   39.360002    1.420282   84.791772        C
   39.360002    1.420282   94.791772        C
   39.360002    1.420282  104.791772        C
   36.900026    1.420282   14.791772        C
   36.900026    1.420282   24.791772        C
   36.900026    1.420282   34.791772        C
   36.900026    1.420282   44.791772        C
   36.900026    1.420282   54.791772        C
   36.900026    1.420282   64.791772        C
   36.900026    1.420282   74.791772        C
   36.900026    1.420282   84.791772        C
   36.900026    1.420282   94.791772        C
   36.900026    1.420282  104.791772        C
   34.440051    1.420282   14.791772        C
   34.440051    1.420282   24.791772        C
   34.440051    1.420282   34.791772        C
   34.440051    1.420282   44.791772        C
   34.440051    1.420282   54.791772        C
   34.440051    1.420282   64.791772        C
   34.440051    1.420282   74.791772        C
   34.440051    1.420282   84.791772        C
   34.440051    1.420282   94.791772        C
   34.440051    1.420282  104.791772        C
   41.819977    1.420282   14.791772        C
   41.819977    1.420282   24.791772        C
   41.819977    1.420282   34.791772        C
   41.819977    1.420282   44.791772        C
   41.819977    1.420282   54.791772        C
   41.819977    1.420282   64.791772        C
   41.819977    1.420282   74.791772        C
   41.819977    1.420282   84.791772        C
   41.819977    1.420282   94.791772        C
   41.819977    1.420282  104.791772        C
   39.360002    1.420282   14.791772        C
   39.360002    1.420282   24.791772        C
   39.360002    1.420282   34.791772        C
   39.360002    1.420282   44.791772        C
   39.360002    1.420282   54.791772        C
   39.360002    1.420282   64.791772        C
   39.360002    1.420282   74.791772        C
   39.360002    1.420282   84.791772        C
   39.360002    1.420282   94.791772        C
   39.360002    1.420282  104.791772        C
   36.900026    1.420282   14.791772        C
   36.900026    1.420282   24.791772        C
   36.900026    1.420282   34.791772        C
   36.900026    1.420282   44.791772        C
   36.900026    1.420282   54.791772        C
   36.900026    1.420282   64.791772        C
   36.900026    1.420282   74.791772        C
   36.900026    1.420282   84.791772        C
   36.900026    1.420282   94.791772        C
   36.900026    1.420282  104.791772        C
   44.279952    1.420282   14.791772        C
   44.279952    1.420282   24.791772        C
   44.279952    1.420282   34.791772        C
   44.279952    1.420282   44.791772        C
   44.279952    1.420282   54.791772        C
   44.279952    1.420282   64.791772        C
   44.279952    1.420282   74.791772        C
   44.279952    1.420282   84.791772        C
   44.279952    1.420282   94.791772        C
   44.279952    1.420282  104.791772        C
   41.819977    1.420282   14.791772        C
   41.819977    1.420282   24.791772        C
   41.819977    1.420282   34.791772        C
   41.819977    1.420282   44.791772        C
   41.819977    1.420282   54.791772        C
   41.819977    1.420282   64.791772        C
   41.819977    1.420282   74.791772        C
   41.819977    1.420282   84.791772        C
   41.819977    1.420282   94.791772        C
   41.819977    1.420282  104.791772        C
   39.360002    1.420282   14.791772        C
   39.360002    1.420282   24.791772        C
   39.360002    1.420282   34.791772        C
   39.360002    1.420282   44.791772        C
   39.360002    1.420282   54.791772        C
   39.360002    1.420282   64.791772        C
   39.360002    1.420282   74.791772        C
   39.360002    1.420282   84.791772        C
   39.360002    1.420282   94.791772        C
   39.360002    1.420282  104.791772        C
   46.740029    1.420282   14.791772        C
   46.740029    1.420282   24.791772        C
   46.740029    1.420282   34.791772        C
   46.740029    1.420282   44.791772        C
   46.740029    1.420282   54.791772        C
   46.740029    1.420282   64.791772        C
   46.740029    1.420282   74.791772        C
   46.740029    1.420282   84.791772        C
   46.740029    1.420282   94.791772        C
   46.740029    1.420282  104.791772        C
   44.280053    1.420282   14.791772        C
   44.280053    1.420282   24.791772        C
   44.280053    1.420282   34.791772        C
   44.280053    1.420282   44.791772        C
   44.280053    1.420282   54.791772        C
   44.280053    1.420282   64.791772        C
   44.280053    1.420282   74.791772        C
   44.280053    1.420282   84.791772        C
   44.280053    1.420282   94.791772        C
   44.280053    1.420282  104.791772        C
   41.819977    1.420282   14.791772        C
   41.819977    1.420282   24.791772        C
   41.819977    1.420282   34.791772        C
   41.819977    1.420282   44.791772        C
   41.819977    1.420282   54.791772        C
   41.819977    1.420282   64.791772        C
   41.819977    1.420282   74.791772        C
   41.819977    1.420282   84.791772        C
   41.819977    1.420282   94.791772        C
   41.819977    1.420282  104.791772        C
   49.200004    1.420282   14.791772        C
   49.200004    1.420282   24.791772        C
   49.200004    1.420282   34.791772        C
   49.200004    1.420282   44.791772        C
   49.200004    1.420282   54.791772        C
   49.200004    1.420282   64.791772        C
   49.200004    1.420282   74.791772        C
   49.200004    1.420282   84.791772        C
   49.200004    1.420282   94.791772        C
   49.200004    1.420282  104.791772        C
   46.740029    1.420282   14.791772        C
   46.740029    1.420282   24.791772        C
   46.740029    1.420282   34.791772        C
   46.740029    1.420282   44.791772        C
   46.740029    1.420282   54.791772        C
   46.740029    1.420282   64.791772        C
   46.740029    1.420282   74.791772        C
   46.740029    1.420282   84.791772        C
   46.740029    1.420282   94.791772        C
   46.740029    1.420282  104.791772        C
   44.280053    1.420282   14.791772        C
   44.280053    1.420282   24.791772        C
   44.280053    1.420282   34.791772        C
   44.280053    1.420282   44.791772        C
   44.280053    1.420282   54.791772        C
   44.280053    1.420282   64.791772        C
   44.280053    1.420282   74.791772        C
   44.280053    1.420282   84.791772        C
   44.280053    1.420282   94.791772        C
   44.280053    1.420282  104.791772        C
   51.659980    1.420282   14.791772        C
   51.659980    1.420282   24.791772        C
   51.659980    1.420282   34.791772        C
   51.659980    1.420282   44.791772        C
   51.659980    1.420282   54.791772        C
   51.659980    1.420282   64.791772        C
   51.659980    1.420282   74.791772        C
   51.659980    1.420282   84.791772        C
   51.659980    1.420282   94.791772        C
   51.659980    1.420282  104.791772        C
   49.200004    1.420282   14.791772        C
   49.200004    1.420282   24.791772        C
   49.200004    1.420282   34.791772        C
   49.200004    1.420282   44.791772        C
   49.200004    1.420282   54.791772        C
   49.200004    1.420282   64.791772        C