New structure
1.0
        8.5216903687         0.0000000000         0.0000000000
        0.0000000000         2.4599997997         0.0000000000
        0.0000000000         0.0000000000        10.0000000000
    C
    8
Cartesian
     3.550704236         1.229999900         0.000000000
     7.811549166         1.229999900         0.000000000
     1.420281389         0.000000000         0.000000000
     5.681126574         0.000000000         0.000000000
     0.710140822         1.229999827         0.000000000
     4.970985879         1.229999827         0.000000000
     2.840563287         0.000000000         0.000000000
     7.101408471         0.000000000         0.000000000
