C
 1.0000000000000000
     4.9200000762000000    0.0000000000000000    0.0000000000000000
    -2.4600000382000000    4.2608450525999997    0.0000000000000000
     0.0000000000000000    0.0000000000000000   10.0000000000000000
 C
  16
Cartesian
  1.2299999460000000  0.7101408000000000  3.3250001070000001
  3.6899999841000000  0.7101408000000000  3.3250001070000001
  0.0000000000000000  1.4202817270000001  3.3250001070000001
  2.4600000381000000  1.4202817270000001  3.3250001070000001
 -0.0000000731000001  2.8405633262999999  3.3250001070000001
  2.4599999649999997  2.8405633262999999  3.3250001070000001
 -1.2300000191000000  3.5507042533000002  3.3250001070000001
  1.2300000190000000  3.5507042533000002  3.3250001070000001
  0.0000000000000000  0.0000000000000000  6.6750001909999996
  2.4600000381000000  0.0000000000000000  6.6750001909999996
  1.2299999460000000  0.7101408000000000  6.6750001909999996
  3.6899999841000000  0.7101408000000000  6.6750001909999996
 -1.2300000191000000  2.1304225262999998  6.6750001909999996
  1.2300000190000000  2.1304225262999998  6.6750001909999996
 -0.0000000731000001  2.8405633262999999  6.6750001909999996
  2.4599999649999997  2.8405633262999999  6.6750001909999996
