New structure
1.0
        4.9200000763         0.0000000000         0.0000000000
       -1.2300000191         2.1304225263         0.0000000000
        0.0000000000         0.0000000000        10.0000000000
    C
    4
Cartesian
     0.000000000         1.420281727         0.000000000
     2.460000111         1.420281727         0.000000000
     1.229999946         0.710140800         0.000000000
     3.689999984         0.710140800         0.000000000
