POSCAR for slab defined by SURFACE card and Nslab and Vacuum_thickness_in_Angstrom in wt.in by WannierTools
1.0
    4.260845    0.000000    0.000000
    0.000000    2.460000    0.000000
    0.000000    0.000000  110.583544
C     
    40
Cartesian
    3.550703    1.230000   14.791772        C
    3.550703    1.230000   24.791772        C
    3.550703    1.230000   34.791772        C
    3.550703    1.230000   44.791772        C
    3.550703    1.230000   54.791772        C
    3.550703    1.230000   64.791772        C
    3.550703    1.230000   74.791772        C
    3.550703    1.230000   84.791772        C
    3.550703    1.230000   94.791772        C
    3.550703    1.230000  104.791772        C
    1.420280    0.000000   14.791772        C
    1.420280    0.000000   24.791772        C
    1.420280    0.000000   34.791772        C
    1.420280    0.000000   44.791772        C
    1.420280    0.000000   54.791772        C
    1.420280    0.000000   64.791772        C
    1.420280    0.000000   74.791772        C
    1.420280    0.000000   84.791772        C
    1.420280    0.000000   94.791772        C
    1.420280    0.000000  104.791772        C
    0.710142    1.230000   14.791772        C
    0.710142    1.230000   24.791772        C
    0.710142    1.230000   34.791772        C
    0.710142    1.230000   44.791772        C
    0.710142    1.230000   54.791772        C
    0.710142    1.230000   64.791772        C
    0.710142    1.230000   74.791772        C
    0.710142    1.230000   84.791772        C
    0.710142    1.230000   94.791772        C
    0.710142    1.230000  104.791772        C
    2.840565    0.000000   14.791772        C
    2.840565    0.000000   24.791772        C
    2.840565    0.000000   34.791772        C
    2.840565    0.000000   44.791772        C
    2.840565    0.000000   54.791772        C
    2.840565    0.000000   64.791772        C
    2.840565    0.000000   74.791772        C
    2.840565    0.000000   84.791772        C
    2.840565    0.000000   94.791772        C
    2.840565    0.000000  104.791772        C
