New structure
1.0
      102.2602844238         0.0000000000         0.0000000000
        0.0000000000       103.3199920654         0.0000000000
        0.0000000000         0.0000000000        10.0000000000
    C
 4032
Cartesian
     3.550704109         1.229999928         0.000000000
     3.550704109         3.689999882         0.000000000
     3.550704109         6.149999546         0.000000000
     3.550704109         8.609999595         0.000000000
     3.550704109        11.069999260         0.000000000
     3.550704109        13.529999694         0.000000000
     3.550704109        15.989999359         0.000000000
     3.550704109        18.449999023         0.000000000
     3.550704109        20.909998687         0.000000000
     3.550704109        23.369998352         0.000000000
     3.550704109        25.829998016         0.000000000
     3.550704109        28.289997681         0.000000000
     3.550704109        30.749997345         0.000000000
     3.550704109        33.209997010         0.000000000
     3.550704109        35.669996674         0.000000000
     3.550704109        38.129996339         0.000000000
     3.550704109        40.589996003         0.000000000
     3.550704109        43.049995668         0.000000000
     3.550704109        45.509995332         0.000000000
     3.550704109        47.969994996         0.000000000
     3.550704109        50.429994661         0.000000000
     3.550704109        52.889997405         0.000000000
     3.550704109        55.349993990         0.000000000
     3.550704109        57.809996733         0.000000000
     3.550704109        60.269993319         0.000000000
     3.550704109        62.729996062         0.000000000
     3.550704109        65.189992648         0.000000000
     3.550704109        67.649995391         0.000000000
     3.550704109        70.109991977         0.000000000
     3.550704109        72.569994720         0.000000000
     3.550704109        75.029991305         0.000000000
     3.550704109        77.489994049         0.000000000
     3.550704109        79.949996793         0.000000000
     3.550704109        82.409993378         0.000000000
     3.550704109        84.869996122         0.000000000
     3.550704109        87.329992707         0.000000000
     3.550704109        89.789995451         0.000000000
     3.550704109        92.249992036         0.000000000
     3.550704109        94.709994779         0.000000000
     3.550704109        97.169991365         0.000000000
     3.550704109        99.629994108         0.000000000
     3.550704109       102.089990694         0.000000000
     7.811549420         1.229999928         0.000000000
     7.811549420         3.689999882         0.000000000
     7.811549420         6.149999546         0.000000000
     7.811549420         8.609999595         0.000000000
     7.811549420        11.069999260         0.000000000
     7.811549420        13.529999694         0.000000000
     7.811549420        15.989999359         0.000000000
     7.811549420        18.449999023         0.000000000
     7.811549420        20.909998687         0.000000000
     7.811549420        23.369998352         0.000000000
     7.811549420        25.829998016         0.000000000
     7.811549420        28.289997681         0.000000000
     7.811549420        30.749997345         0.000000000
     7.811549420        33.209997010         0.000000000
     7.811549420        35.669996674         0.000000000
     7.811549420        38.129996339         0.000000000
     7.811549420        40.589996003         0.000000000
     7.811549420        43.049995668         0.000000000
     7.811549420        45.509995332         0.000000000
     7.811549420        47.969994996         0.000000000
     7.811549420        50.429994661         0.000000000
     7.811549420        52.889997405         0.000000000
     7.811549420        55.349993990         0.000000000
     7.811549420        57.809996733         0.000000000
     7.811549420        60.269993319         0.000000000
     7.811549420        62.729996062         0.000000000
     7.811549420        65.189992648         0.000000000
     7.811549420        67.649995391         0.000000000
     7.811549420        70.109991977         0.000000000
     7.811549420        72.569994720         0.000000000
     7.811549420        75.029991305         0.000000000
     7.811549420        77.489994049         0.000000000
     7.811549420        79.949996793         0.000000000
     7.811549420        82.409993378         0.000000000
     7.811549420        84.869996122         0.000000000
     7.811549420        87.329992707         0.000000000
     7.811549420        89.789995451         0.000000000
     7.811549420        92.249992036         0.000000000
     7.811549420        94.709994779         0.000000000
     7.811549420        97.169991365         0.000000000
     7.811549420        99.629994108         0.000000000
     7.811549420       102.089990694         0.000000000
    12.072394350         1.229999928         0.000000000
    12.072394350         3.689999882         0.000000000
    12.072394350         6.149999546         0.000000000
    12.072394350         8.609999595         0.000000000
    12.072394350        11.069999260         0.000000000
    12.072394350        13.529999694         0.000000000
    12.072394350        15.989999359         0.000000000
    12.072394350        18.449999023         0.000000000
    12.072394350        20.909998687         0.000000000
    12.072394350        23.369998352         0.000000000
    12.072394350        25.829998016         0.000000000
    12.072394350        28.289997681         0.000000000
    12.072394350        30.749997345         0.000000000
    12.072394350        33.209997010         0.000000000
    12.072394350        35.669996674         0.000000000
    12.072394350        38.129996339         0.000000000
    12.072394350        40.589996003         0.000000000
    12.072394350        43.049995668         0.000000000
    12.072394350        45.509995332         0.000000000
    12.072394350        47.969994996         0.000000000
    12.072394350        50.429994661         0.000000000
    12.072394350        52.889997405         0.000000000
    12.072394350        55.349993990         0.000000000
    12.072394350        57.809996733         0.000000000
    12.072394350        60.269993319         0.000000000
    12.072394350        62.729996062         0.000000000
    12.072394350        65.189992648         0.000000000
    12.072394350        67.649995391         0.000000000
    12.072394350        70.109991977         0.000000000
    12.072394350        72.569994720         0.000000000
    12.072394350        75.029991305         0.000000000
    12.072394350        77.489994049         0.000000000
    12.072394350        79.949996793         0.000000000
    12.072394350        82.409993378         0.000000000
    12.072394350        84.869996122         0.000000000
    12.072394350        87.329992707         0.000000000
    12.072394350        89.789995451         0.000000000
    12.072394350        92.249992036         0.000000000
    12.072394350        94.709994779         0.000000000
    12.072394350        97.169991365         0.000000000
    12.072394350        99.629994108         0.000000000
    12.072394350       102.089990694         0.000000000
    16.333240043         1.229999928         0.000000000
    16.333240043         3.689999882         0.000000000
    16.333240043         6.149999546         0.000000000
    16.333240043         8.609999595         0.000000000
    16.333240043        11.069999260         0.000000000
    16.333240043        13.529999694         0.000000000
    16.333240043        15.989999359         0.000000000
    16.333240043        18.449999023         0.000000000
    16.333240043        20.909998687         0.000000000
    16.333240043        23.369998352         0.000000000
    16.333240043        25.829998016         0.000000000
    16.333240043        28.289997681         0.000000000
    16.333240043        30.749997345         0.000000000
    16.333240043        33.209997010         0.000000000
    16.333240043        35.669996674         0.000000000
    16.333240043        38.129996339         0.000000000
    16.333240043        40.589996003         0.000000000
    16.333240043        43.049995668         0.000000000
    16.333240043        45.509995332         0.000000000
    16.333240043        47.969994996         0.000000000
    16.333240043        50.429994661         0.000000000
    16.333240043        52.889997405         0.000000000
    16.333240043        55.349993990         0.000000000
    16.333240043        57.809996733         0.000000000
    16.333240043        60.269993319         0.000000000
    16.333240043        62.729996062         0.000000000
    16.333240043        65.189992648         0.000000000
    16.333240043        67.649995391         0.000000000
    16.333240043        70.109991977         0.000000000
    16.333240043        72.569994720         0.000000000
    16.333240043        75.029991305         0.000000000
    16.333240043        77.489994049         0.000000000
    16.333240043        79.949996793         0.000000000
    16.333240043        82.409993378         0.000000000
    16.333240043        84.869996122         0.000000000
    16.333240043        87.329992707         0.000000000
    16.333240043        89.789995451         0.000000000
    16.333240043        92.249992036         0.000000000
    16.333240043        94.709994779         0.000000000
    16.333240043        97.169991365         0.000000000
    16.333240043        99.629994108         0.000000000
    16.333240043       102.089990694         0.000000000
    20.594084211         1.229999928         0.000000000
    20.594084211         3.689999882         0.000000000
    20.594084211         6.149999546         0.000000000
    20.594084211         8.609999595         0.000000000
    20.594084211        11.069999260         0.000000000
    20.594084211        13.529999694         0.000000000
    20.594084211        15.989999359         0.000000000
    20.594084211        18.449999023         0.000000000
    20.594084211        20.909998687         0.000000000
    20.594084211        23.369998352         0.000000000
    20.594084211        25.829998016         0.000000000
    20.594084211        28.289997681         0.000000000
    20.594084211        30.749997345         0.000000000
    20.594084211        33.209997010         0.000000000
    20.594084211        35.669996674         0.000000000
    20.594084211        38.129996339         0.000000000
    20.594084211        40.589996003         0.000000000
    20.594084211        43.049995668         0.000000000
    20.594084211        45.509995332         0.000000000
    20.594084211        47.969994996         0.000000000
    20.594084211        50.429994661         0.000000000
    20.594084211        52.889997405         0.000000000
    20.594084211        55.349993990         0.000000000
    20.594084211        57.809996733         0.000000000
    20.594084211        60.269993319         0.000000000
    20.594084211        62.729996062         0.000000000
    20.594084211        65.189992648         0.000000000
    20.594084211        67.649995391         0.000000000
    20.594084211        70.109991977         0.000000000
    20.594084211        72.569994720         0.000000000
    20.594084211        75.029991305         0.000000000
    20.594084211        77.489994049         0.000000000
    20.594084211        79.949996793         0.000000000
    20.594084211        82.409993378         0.000000000
    20.594084211        84.869996122         0.000000000
    20.594084211        87.329992707         0.000000000
    20.594084211        89.789995451         0.000000000
    20.594084211        92.249992036         0.000000000
    20.594084211        94.709994779         0.000000000
    20.594084211        97.169991365         0.000000000
    20.594084211        99.629994108         0.000000000
    20.594084211       102.089990694         0.000000000
    24.854928379         1.229999928         0.000000000
    24.854928379         3.689999882         0.000000000
    24.854928379         6.149999546         0.000000000
    24.854928379         8.609999595         0.000000000
    24.854928379        11.069999260         0.000000000
    24.854928379        13.529999694         0.000000000
    24.854928379        15.989999359         0.000000000
    24.854928379        18.449999023         0.000000000
    24.854928379        20.909998687         0.000000000
    24.854928379        23.369998352         0.000000000
    24.854928379        25.829998016         0.000000000
    24.854928379        28.289997681         0.000000000
    24.854928379        30.749997345         0.000000000
    24.854928379        33.209997010         0.000000000
    24.854928379        35.669996674         0.000000000
    24.854928379        38.129996339         0.000000000
    24.854928379        40.589996003         0.000000000
    24.854928379        43.049995668         0.000000000
    24.854928379        45.509995332         0.000000000
    24.854928379        47.969994996         0.000000000
    24.854928379        50.429994661         0.000000000
    24.854928379        52.889997405         0.000000000
    24.854928379        55.349993990         0.000000000
    24.854928379        57.809996733         0.000000000
    24.854928379        60.269993319         0.000000000
    24.854928379        62.729996062         0.000000000
    24.854928379        65.189992648         0.000000000
    24.854928379        67.649995391         0.000000000
    24.854928379        70.109991977         0.000000000
    24.854928379        72.569994720         0.000000000
    24.854928379        75.029991305         0.000000000
    24.854928379        77.489994049         0.000000000
    24.854928379        79.949996793         0.000000000
    24.854928379        82.409993378         0.000000000
    24.854928379        84.869996122         0.000000000
    24.854928379        87.329992707         0.000000000
    24.854928379        89.789995451         0.000000000
    24.854928379        92.249992036         0.000000000
    24.854928379        94.709994779         0.000000000
    24.854928379        97.169991365         0.000000000
    24.854928379        99.629994108         0.000000000
    24.854928379       102.089990694         0.000000000
    29.115774072         1.229999928         0.000000000
    29.115774072         3.689999882         0.000000000
    29.115774072         6.149999546         0.000000000
    29.115774072         8.609999595         0.000000000
    29.115774072        11.069999260         0.000000000
    29.115774072        13.529999694         0.000000000
    29.115774072        15.989999359         0.000000000
    29.115774072        18.449999023         0.000000000
    29.115774072        20.909998687         0.000000000
    29.115774072        23.369998352         0.000000000
    29.115774072        25.829998016         0.000000000
    29.115774072        28.289997681         0.000000000
    29.115774072        30.749997345         0.000000000
    29.115774072        33.209997010         0.000000000
    29.115774072        35.669996674         0.000000000
    29.115774072        38.129996339         0.000000000
    29.115774072        40.589996003         0.000000000
    29.115774072        43.049995668         0.000000000
    29.115774072        45.509995332         0.000000000
    29.115774072        47.969994996         0.000000000
    29.115774072        50.429994661         0.000000000
    29.115774072        52.889997405         0.000000000
    29.115774072        55.349993990         0.000000000
    29.115774072        57.809996733         0.000000000
    29.115774072        60.269993319         0.000000000
    29.115774072        62.729996062         0.000000000
    29.115774072        65.189992648         0.000000000
    29.115774072        67.649995391         0.000000000
    29.115774072        70.109991977         0.000000000
    29.115774072        72.569994720         0.000000000
    29.115774072        75.029991305         0.000000000
    29.115774072        77.489994049         0.000000000
    29.115774072        79.949996793         0.000000000
    29.115774072        82.409993378         0.000000000
    29.115774072        84.869996122         0.000000000
    29.115774072        87.329992707         0.000000000
    29.115774072        89.789995451         0.000000000
    29.115774072        92.249992036         0.000000000
    29.115774072        94.709994779         0.000000000
    29.115774072        97.169991365         0.000000000
    29.115774072        99.629994108         0.000000000
    29.115774072       102.089990694         0.000000000
    33.376621288         1.229999928         0.000000000
    33.376621288         3.689999882         0.000000000
    33.376621288         6.149999546         0.000000000
    33.376621288         8.609999595         0.000000000
    33.376621288        11.069999260         0.000000000
    33.376621288        13.529999694         0.000000000
    33.376621288        15.989999359         0.000000000
    33.376621288        18.449999023         0.000000000
    33.376621288        20.909998687         0.000000000
    33.376621288        23.369998352         0.000000000
    33.376621288        25.829998016         0.000000000
    33.376621288        28.289997681         0.000000000
    33.376621288        30.749997345         0.000000000
    33.376621288        33.209997010         0.000000000
    33.376621288        35.669996674         0.000000000
    33.376621288        38.129996339         0.000000000
    33.376621288        40.589996003         0.000000000
    33.376621288        43.049995668         0.000000000
    33.376621288        45.509995332         0.000000000
    33.376621288        47.969994996         0.000000000
    33.376621288        50.429994661         0.000000000
    33.376621288        52.889997405         0.000000000
    33.376621288        55.349993990         0.000000000
    33.376621288        57.809996733         0.000000000
    33.376621288        60.269993319         0.000000000
    33.376621288        62.729996062         0.000000000
    33.376621288        65.189992648         0.000000000
    33.376621288        67.649995391         0.000000000
    33.376621288        70.109991977         0.000000000
    33.376621288        72.569994720         0.000000000
    33.376621288        75.029991305         0.000000000
    33.376621288        77.489994049         0.000000000
    33.376621288        79.949996793         0.000000000
    33.376621288        82.409993378         0.000000000
    33.376621288        84.869996122         0.000000000
    33.376621288        87.329992707         0.000000000
    33.376621288        89.789995451         0.000000000
    33.376621288        92.249992036         0.000000000
    33.376621288        94.709994779         0.000000000
    33.376621288        97.169991365         0.000000000
    33.376621288        99.629994108         0.000000000
    33.376621288       102.089990694         0.000000000
    37.637465456         1.229999928         0.000000000
    37.637465456         3.689999882         0.000000000
    37.637465456         6.149999546         0.000000000
    37.637465456         8.609999595         0.000000000
    37.637465456        11.069999260         0.000000000
    37.637465456        13.529999694         0.000000000
    37.637465456        15.989999359         0.000000000
    37.637465456        18.449999023         0.000000000
    37.637465456        20.909998687         0.000000000
    37.637465456        23.369998352         0.000000000
    37.637465456        25.829998016         0.000000000
    37.637465456        28.289997681         0.000000000
    37.637465456        30.749997345         0.000000000
    37.637465456        33.209997010         0.000000000
    37.637465456        35.669996674         0.000000000
    37.637465456        38.129996339         0.000000000
    37.637465456        40.589996003         0.000000000
    37.637465456        43.049995668         0.000000000
    37.637465456        45.509995332         0.000000000
    37.637465456        47.969994996         0.000000000
    37.637465456        50.429994661         0.000000000
    37.637465456        52.889997405         0.000000000
    37.637465456        55.349993990         0.000000000
    37.637465456        57.809996733         0.000000000
    37.637465456        60.269993319         0.000000000
    37.637465456        62.729996062         0.000000000
    37.637465456        65.189992648         0.000000000
    37.637465456        67.649995391         0.000000000
    37.637465456        70.109991977         0.000000000
    37.637465456        72.569994720         0.000000000
    37.637465456        75.029991305         0.000000000
    37.637465456        77.489994049         0.000000000
    37.637465456        79.949996793         0.000000000
    37.637465456        82.409993378         0.000000000
    37.637465456        84.869996122         0.000000000
    37.637465456        87.329992707         0.000000000
    37.637465456        89.789995451         0.000000000
    37.637465456        92.249992036         0.000000000
    37.637465456        94.709994779         0.000000000
    37.637465456        97.169991365         0.000000000
    37.637465456        99.629994108         0.000000000
    37.637465456       102.089990694         0.000000000
    41.898306577         1.229999928         0.000000000
    41.898306577         3.689999882         0.000000000
    41.898306577         6.149999546         0.000000000
    41.898306577         8.609999595         0.000000000
    41.898306577        11.069999260         0.000000000
    41.898306577        13.529999694         0.000000000
    41.898306577        15.989999359         0.000000000
    41.898306577        18.449999023         0.000000000
    41.898306577        20.909998687         0.000000000
    41.898306577        23.369998352         0.000000000
    41.898306577        25.829998016         0.000000000
    41.898306577        28.289997681         0.000000000
    41.898306577        30.749997345         0.000000000
    41.898306577        33.209997010         0.000000000
    41.898306577        35.669996674         0.000000000
    41.898306577        38.129996339         0.000000000
    41.898306577        40.589996003         0.000000000
    41.898306577        43.049995668         0.000000000
    41.898306577        45.509995332         0.000000000
    41.898306577        47.969994996         0.000000000
    41.898306577        50.429994661         0.000000000
    41.898306577        52.889997405         0.000000000
    41.898306577        55.349993990         0.000000000
    41.898306577        57.809996733         0.000000000
    41.898306577        60.269993319         0.000000000
    41.898306577        62.729996062         0.000000000
    41.898306577        65.189992648         0.000000000
    41.898306577        67.649995391         0.000000000
    41.898306577        70.109991977         0.000000000
    41.898306577        72.569994720         0.000000000
    41.898306577        75.029991305         0.000000000
    41.898306577        77.489994049         0.000000000
    41.898306577        79.949996793         0.000000000
    41.898306577        82.409993378         0.000000000
    41.898306577        84.869996122         0.000000000
    41.898306577        87.329992707         0.000000000
    41.898306577        89.789995451         0.000000000
    41.898306577        92.249992036         0.000000000
    41.898306577        94.709994779         0.000000000
    41.898306577        97.169991365         0.000000000
    41.898306577        99.629994108         0.000000000
    41.898306577       102.089990694         0.000000000
    46.159156841         1.229999928         0.000000000
    46.159156841         3.689999882         0.000000000
    46.159156841         6.149999546         0.000000000
    46.159156841         8.609999595         0.000000000
    46.159156841        11.069999260         0.000000000
    46.159156841        13.529999694         0.000000000
    46.159156841        15.989999359         0.000000000
    46.159156841        18.449999023         0.000000000
    46.159156841        20.909998687         0.000000000
    46.159156841        23.369998352         0.000000000
    46.159156841        25.829998016         0.000000000
    46.159156841        28.289997681         0.000000000
    46.159156841        30.749997345         0.000000000
    46.159156841        33.209997010         0.000000000
    46.159156841        35.669996674         0.000000000
    46.159156841        38.129996339         0.000000000
    46.159156841        40.589996003         0.000000000
    46.159156841        43.049995668         0.000000000
    46.159156841        45.509995332         0.000000000
    46.159156841        47.969994996         0.000000000
    46.159156841        50.429994661         0.000000000
    46.159156841        52.889997405         0.000000000
    46.159156841        55.349993990         0.000000000
    46.159156841        57.809996733         0.000000000
    46.159156841        60.269993319         0.000000000
    46.159156841        62.729996062         0.000000000
    46.159156841        65.189992648         0.000000000
    46.159156841        67.649995391         0.000000000
    46.159156841        70.109991977         0.000000000
    46.159156841        72.569994720         0.000000000
    46.159156841        75.029991305         0.000000000
    46.159156841        77.489994049         0.000000000
    46.159156841        79.949996793         0.000000000
    46.159156841        82.409993378         0.000000000
    46.159156841        84.869996122         0.000000000
    46.159156841        87.329992707         0.000000000
    46.159156841        89.789995451         0.000000000
    46.159156841        92.249992036         0.000000000
    46.159156841        94.709994779         0.000000000
    46.159156841        97.169991365         0.000000000
    46.159156841        99.629994108         0.000000000
    46.159156841       102.089990694         0.000000000
    50.420001009         1.229999928         0.000000000
    50.420001009         3.689999882         0.000000000
    50.420001009         6.149999546         0.000000000
    50.420001009         8.609999595         0.000000000
    50.420001009        11.069999260         0.000000000
    50.420001009        13.529999694         0.000000000
    50.420001009        15.989999359         0.000000000
    50.420001009        18.449999023         0.000000000
    50.420001009        20.909998687         0.000000000
    50.420001009        23.369998352         0.000000000
    50.420001009        25.829998016         0.000000000
    50.420001009        28.289997681         0.000000000
    50.420001009        30.749997345         0.000000000
    50.420001009        33.209997010         0.000000000
    50.420001009        35.669996674         0.000000000
    50.420001009        38.129996339         0.000000000
    50.420001009        40.589996003         0.000000000
    50.420001009        43.049995668         0.000000000
    50.420001009        45.509995332         0.000000000
    50.420001009        47.969994996         0.000000000
    50.420001009        50.429994661         0.000000000
    50.420001009        52.889997405         0.000000000
    50.420001009        55.349993990         0.000000000
    50.420001009        57.809996733         0.000000000
    50.420001009        60.269993319         0.000000000
    50.420001009        62.729996062         0.000000000
    50.420001009        65.189992648         0.000000000
    50.420001009        67.649995391         0.000000000
    50.420001009        70.109991977         0.000000000
    50.420001009        72.569994720         0.000000000
    50.420001009        75.029991305         0.000000000
    50.420001009        77.489994049         0.000000000
    50.420001009        79.949996793         0.000000000
    50.420001009        82.409993378         0.000000000
    50.420001009        84.869996122         0.000000000
    50.420001009        87.329992707         0.000000000
    50.420001009        89.789995451         0.000000000
    50.420001009        92.249992036         0.000000000
    50.420001009        94.709994779         0.000000000
    50.420001009        97.169991365         0.000000000
    50.420001009        99.629994108         0.000000000
    50.420001009       102.089990694         0.000000000
    54.680845178         1.229999928         0.000000000
    54.680845178         3.689999882         0.000000000
    54.680845178         6.149999546         0.000000000
    54.680845178         8.609999595         0.000000000
    54.680845178        11.069999260         0.000000000
    54.680845178        13.529999694         0.000000000
    54.680845178        15.989999359         0.000000000
    54.680845178        18.449999023         0.000000000
    54.680845178        20.909998687         0.000000000
    54.680845178        23.369998352         0.000000000
    54.680845178        25.829998016         0.000000000
    54.680845178        28.289997681         0.000000000
    54.680845178        30.749997345         0.000000000
    54.680845178        33.209997010         0.000000000
    54.680845178        35.669996674         0.000000000
    54.680845178        38.129996339         0.000000000
    54.680845178        40.589996003         0.000000000
    54.680845178        43.049995668         0.000000000