C 
 1.0000000000000000
     8.5508432388000006    0.0000000000000000    0.0000000000000000
     0.0000000000000000    4.9368319512000003    0.0000000000000000
     0.0000000000000000    0.0000000000000000   10.0000000000000000
 C  
  32
Cartesian
  1.4251405811290758  0.0000000000000000  3.3250001100000000
  2.8502811665335730  0.0000000000000000  3.3250001100000000
  5.7005622005290757  0.0000000000000000  3.3250001100000000
  7.1257027859335729  0.0000000000000000  3.3250001100000000
  0.7125702927022486  1.2342079878000001  3.3250001100000000
  3.5628515190917245  1.2342079878000001  3.3250001100000000
  4.9879919121022489  1.2342079878000001  3.3250001100000000
  7.8382731384917248  1.2342079878000001  3.3250001100000000
  1.4251405811290758  2.4684159756000001  3.3250001100000000
  2.8502811665335730  2.4684159756000001  3.3250001100000000
  5.7005622005290757  2.4684159756000001  3.3250001100000000
  7.1257027859335729  2.4684159756000001  3.3250001100000000
  0.7125702927022486  3.7026239634000002  3.3250001100000000
  3.5628515190917245  3.7026239634000002  3.3250001100000000
  4.9879919121022489  3.7026239634000002  3.3250001100000000
  7.8382731384917248  3.7026239634000002  3.3250001100000000
  0.0000000000000000  0.0000000000000000  6.6750001900000004
  1.4251405811290758  0.0000000000000000  6.6750001900000004
  4.2754216194000003  0.0000000000000000  6.6750001900000004
  5.7005622005290757  0.0000000000000000  6.6750001900000004
  2.1377108097000002  1.2342079878000001  6.6750001900000004
  3.5628515190917245  1.2342079878000001  6.6750001900000004
  6.4131324291000009  1.2342079878000001  6.6750001900000004
  7.8382731384917248  1.2342079878000001  6.6750001900000004
  0.0000000000000000  2.4684159756000001  6.6750001900000004
  1.4251405811290758  2.4684159756000001  6.6750001900000004
  4.2754216194000003  2.4684159756000001  6.6750001900000004
  5.7005622005290757  2.4684159756000001  6.6750001900000004
  2.1377108097000002  3.7026239634000002  6.6750001900000004
  3.5628515190917245  3.7026239634000002  6.6750001900000004
  6.4131324291000009  3.7026239634000002  6.6750001900000004
  7.8382731384917248  3.7026239634000002  6.6750001900000004
