 C 
 1.0000000000000000
   171.0168647760000056    0.0000000000000000    0.0000000000000000
     0.0000000000000000    2.4684159756000001    0.0000000000000000
     0.0000000000000000    0.0000000000000000   10.0000000000000000
 C  
 320
Cartesian
  1.4251405811290758  0.0000000000000000  3.3250001100000000
  2.8502811665335730  0.0000000000000000  3.3250001100000000
  5.7005622005290757  0.0000000000000000  3.3250001100000000
  7.1257027859335729  0.0000000000000000  3.3250001100000000
  9.9759838199290769  0.0000000000000000  3.3250001100000000
 11.4011244053335741  0.0000000000000000  3.3250001100000000
 14.2514054393290781  0.0000000000000000  3.3250001100000000
 15.6765460247335753  0.0000000000000000  3.3250001100000000
 18.5268270587290758  0.0000000000000000  3.3250001100000000
 19.9519676441335747  0.0000000000000000  3.3250001100000000
 22.8022486781290752  0.0000000000000000  3.3250001100000000
 24.2273892635335741  0.0000000000000000  3.3250001100000000
 27.0776702975290782  0.0000000000000000  3.3250001100000000
 28.5028108829335771  0.0000000000000000  3.3250001100000000
 31.3530919169290776  0.0000000000000000  3.3250001100000000
 32.7782325023335730  0.0000000000000000  3.3250001100000000
 35.6285135363290806  0.0000000000000000  3.3250001100000000
 37.0536541217335724  0.0000000000000000  3.3250001100000000
 39.9039351557290800  0.0000000000000000  3.3250001100000000
 41.3290757411335719  0.0000000000000000  3.3250001100000000
 44.1793567751290794  0.0000000000000000  3.3250001100000000
 45.6044973605335713  0.0000000000000000  3.3250001100000000
 48.4547783945290789  0.0000000000000000  3.3250001100000000
 49.8799189799335707  0.0000000000000000  3.3250001100000000
 52.7302000139290854  0.0000000000000000  3.3250001100000000
 54.1553405993335772  0.0000000000000000  3.3250001100000000
 57.0056216333290848  0.0000000000000000  3.3250001100000000
 58.4307622187335767  0.0000000000000000  3.3250001100000000
 61.2810432527290843  0.0000000000000000  3.3250001100000000
 62.7061838381335761  0.0000000000000000  3.3250001100000000
 65.5564648721290695  0.0000000000000000  3.3250001100000000
 66.9816054575335755  0.0000000000000000  3.3250001100000000
 69.8318864915290760  0.0000000000000000  3.3250001100000000
 71.2570270769335821  0.0000000000000000  3.3250001100000000
 74.1073081109290825  0.0000000000000000  3.3250001100000000
 75.5324486963335886  0.0000000000000000  3.3250001100000000
 78.3827297303290749  0.0000000000000000  3.3250001100000000
 79.8078703157335809  0.0000000000000000  3.3250001100000000
 82.6581513497290814  0.0000000000000000  3.3250001100000000
 84.0832919351335875  0.0000000000000000  3.3250001100000000
 86.9335729691290737  0.0000000000000000  3.3250001100000000
 88.3587135545335798  0.0000000000000000  3.3250001100000000
 91.2089945885290803  0.0000000000000000  3.3250001100000000
 92.6341351739335863  0.0000000000000000  3.3250001100000000
 95.4844162079290726  0.0000000000000000  3.3250001100000000
 96.9095567933335786  0.0000000000000000  3.3250001100000000
 99.7598378273290791  0.0000000000000000  3.3250001100000000
 101.1849784127335852  0.0000000000000000  3.3250001100000000
 104.0352594467290857  0.0000000000000000  3.3250001100000000
 105.4604000321335917  0.0000000000000000  3.3250001100000000
 108.3106810661290780  0.0000000000000000  3.3250001100000000
 109.7358216515335840  0.0000000000000000  3.3250001100000000
 112.5861026855290845  0.0000000000000000  3.3250001100000000
 114.0112432709335906  0.0000000000000000  3.3250001100000000
 116.8615243049290768  0.0000000000000000  3.3250001100000000
 118.2866648903335829  0.0000000000000000  3.3250001100000000
 121.1369459243290834  0.0000000000000000  3.3250001100000000
 122.5620865097335894  0.0000000000000000  3.3250001100000000
 125.4123675437290757  0.0000000000000000  3.3250001100000000
 126.8375081291335817  0.0000000000000000  3.3250001100000000
 129.6877891631290822  0.0000000000000000  3.3250001100000000
 131.1129297485335599  0.0000000000000000  3.3250001100000000
 133.9632107825291030  0.0000000000000000  3.3250001100000000
 135.3883513679335806  0.0000000000000000  3.3250001100000000
 138.2386324019290953  0.0000000000000000  3.3250001100000000
 139.6637729873335729  0.0000000000000000  3.3250001100000000
 142.5140540213290876  0.0000000000000000  3.3250001100000000
 143.9391946067335653  0.0000000000000000  3.3250001100000000
 146.7894756407291084  0.0000000000000000  3.3250001100000000
 148.2146162261335860  0.0000000000000000  3.3250001100000000
 151.0648972601291007  0.0000000000000000  3.3250001100000000
 152.4900378455335783  0.0000000000000000  3.3250001100000000
 155.3403188795290930  0.0000000000000000  3.3250001100000000
 156.7654594649335706  0.0000000000000000  3.3250001100000000
 159.6157404989290853  0.0000000000000000  3.3250001100000000
 161.0408810843335630  0.0000000000000000  3.3250001100000000
 163.8911621183291061  0.0000000000000000  3.3250001100000000
 165.3163027037335837  0.0000000000000000  3.3250001100000000
 168.1665837377290984  0.0000000000000000  3.3250001100000000
 169.5917243231335760  0.0000000000000000  3.3250001100000000
  0.7125702927022486  1.2342079878000001  3.3250001100000000
  3.5628515190917245  1.2342079878000001  3.3250001100000000
  4.9879919121022489  1.2342079878000001  3.3250001100000000
  7.8382731384917248  1.2342079878000001  3.3250001100000000
  9.2634135315022483  1.2342079878000001  3.3250001100000000
 12.1136947578917251  1.2342079878000001  3.3250001100000000
 13.5388351509022513  1.2342079878000001  3.3250001100000000
 16.3891163772917281  1.2342079878000001  3.3250001100000000
 17.8142567703022507  1.2342079878000001  3.3250001100000000
 20.6645379966917275  1.2342079878000001  3.3250001100000000
 22.0896783897022502  1.2342079878000001  3.3250001100000000
 24.9399596160917270  1.2342079878000001  3.3250001100000000
 26.3651000091022532  1.2342079878000001  3.3250001100000000
 29.2153812354917264  1.2342079878000001  3.3250001100000000
 30.6405216285022526  1.2342079878000001  3.3250001100000000
 33.4908028548917258  1.2342079878000001  3.3250001100000000
 34.9159432479022485  1.2342079878000001  3.3250001100000000
 37.7662244742917252  1.2342079878000001  3.3250001100000000
 39.1913648673022479  1.2342079878000001  3.3250001100000000
 42.0416460936917247  1.2342079878000001  3.3250001100000000
 43.4667864867022473  1.2342079878000001  3.3250001100000000
 46.3170677130917241  1.2342079878000001  3.3250001100000000
 47.7422081061022467  1.2342079878000001  3.3250001100000000
 50.5924893324917235  1.2342079878000001  3.3250001100000000
 52.0176297255022533  1.2342079878000001  3.3250001100000000
 54.8679109518917301  1.2342079878000001  3.3250001100000000
 56.2930513449022527  1.2342079878000001  3.3250001100000000
 59.1433325712917295  1.2342079878000001  3.3250001100000000
 60.5684729643022521  1.2342079878000001  3.3250001100000000
 63.4187541906917289  1.2342079878000001  3.3250001100000000
 64.8438945837022516  1.2342079878000001  3.3250001100000000
 67.6941758100917212  1.2342079878000001  3.3250001100000000
 69.1193162031022581  1.2342079878000001  3.3250001100000000
 71.9695974294917278  1.2342079878000001  3.3250001100000000
 73.3947378225022646  1.2342079878000001  3.3250001100000000
 76.2450190488917343  1.2342079878000001  3.3250001100000000
 77.6701594419022570  1.2342079878000001  3.3250001100000000
 80.5204406682917266  1.2342079878000001  3.3250001100000000
 81.9455810613022635  1.2342079878000001  3.3250001100000000
 84.7958622876917332  1.2342079878000001  3.3250001100000000
 86.2210026807022558  1.2342079878000001  3.3250001100000000
 89.0712839070917255  1.2342079878000001  3.3250001100000000
 90.4964243001022624  1.2342079878000001  3.3250001100000000
 93.3467055264917320  1.2342079878000001  3.3250001100000000
 94.7718459195022547  1.2342079878000001  3.3250001100000000
 97.6221271458917244  1.2342079878000001  3.3250001100000000
 99.0472675389022612  1.2342079878000001  3.3250001100000000
 101.8975487652917309  1.2342079878000001  3.3250001100000000
 103.3226891583022677  1.2342079878000001  3.3250001100000000
 106.1729703846917374  1.2342079878000001  3.3250001100000000
 107.5981107777022601  1.2342079878000001  3.3250001100000000
 110.4483920040917297  1.2342079878000001  3.3250001100000000
 111.8735323971022666  1.2342079878000001  3.3250001100000000
 114.7238136234917363  1.2342079878000001  3.3250001100000000
 116.1489540165022589  1.2342079878000001  3.3250001100000000
 118.9992352428917286  1.2342079878000001  3.3250001100000000
 120.4243756359022655  1.2342079878000001  3.3250001100000000
 123.2746568622917351  1.2342079878000001  3.3250001100000000
 124.6997972553022578  1.2342079878000001  3.3250001100000000
 127.5500784816917275  1.2342079878000001  3.3250001100000000
 128.9752188747022501  1.2342079878000001  3.3250001100000000
 131.8255001010917340  1.2342079878000001  3.3250001100000000
 133.2506404941022708  1.2342079878000001  3.3250001100000000
 136.1009217204917547  1.2342079878000001  3.3250001100000000
 137.5260621135022632  1.2342079878000001  3.3250001100000000
 140.3763433398917471  1.2342079878000001  3.3250001100000000
 141.8014837329022555  1.2342079878000001  3.3250001100000000
 144.6517649592917394  1.2342079878000001  3.3250001100000000
 146.0769053523022762  1.2342079878000001  3.3250001100000000
 148.9271865786917601  1.2342079878000001  3.3250001100000000
 150.3523269717022686  1.2342079878000001  3.3250001100000000
 153.2026081980917525  1.2342079878000001  3.3250001100000000
 154.6277485911022609  1.2342079878000001  3.3250001100000000
 157.4780298174917448  1.2342079878000001  3.3250001100000000
 158.9031702105022532  1.2342079878000001  3.3250001100000000
 161.7534514368917371  1.2342079878000001  3.3250001100000000
 163.1785918299022740  1.2342079878000001  3.3250001100000000
 166.0288730562917578  1.2342079878000001  3.3250001100000000
 167.4540134493022663  1.2342079878000001  3.3250001100000000
 170.3042946756917502  1.2342079878000001  3.3250001100000000
  0.0000000000000000  0.0000000000000000  6.6750001900000004
  1.4251405811290758  0.0000000000000000  6.6750001900000004
  4.2754216194000003  0.0000000000000000  6.6750001900000004
  5.7005622005290757  0.0000000000000000  6.6750001900000004
  8.5508432388000006  0.0000000000000000  6.6750001900000004
  9.9759838199290769  0.0000000000000000  6.6750001900000004
 12.8262648582000018  0.0000000000000000  6.6750001900000004
 14.2514054393290781  0.0000000000000000  6.6750001900000004
 17.1016864776000013  0.0000000000000000  6.6750001900000004
 18.5268270587290758  0.0000000000000000  6.6750001900000004
 21.3771080970000007  0.0000000000000000  6.6750001900000004
 22.8022486781290752  0.0000000000000000  6.6750001900000004
 25.6525297164000037  0.0000000000000000  6.6750001900000004
 27.0776702975290782  0.0000000000000000  6.6750001900000004
 29.9279513358000031  0.0000000000000000  6.6750001900000004
 31.3530919169290776  0.0000000000000000  6.6750001900000004
 34.2033729552000025  0.0000000000000000  6.6750001900000004
 35.6285135363290806  0.0000000000000000  6.6750001900000004
 38.4787945746000020  0.0000000000000000  6.6750001900000004
 39.9039351557290800  0.0000000000000000  6.6750001900000004
 42.7542161940000014  0.0000000000000000  6.6750001900000004
 44.1793567751290794  0.0000000000000000  6.6750001900000004
 47.0296378134000008  0.0000000000000000  6.6750001900000004
 48.4547783945290789  0.0000000000000000  6.6750001900000004
 51.3050594328000074  0.0000000000000000  6.6750001900000004
 52.7302000139290854  0.0000000000000000  6.6750001900000004
 55.5804810522000068  0.0000000000000000  6.6750001900000004
 57.0056216333290848  0.0000000000000000  6.6750001900000004
 59.8559026716000062  0.0000000000000000  6.6750001900000004
 61.2810432527290843  0.0000000000000000  6.6750001900000004
 64.1313242909999985  0.0000000000000000  6.6750001900000004
 65.5564648721290695  0.0000000000000000  6.6750001900000004
 68.4067459104000051  0.0000000000000000  6.6750001900000004
 69.8318864915290760  0.0000000000000000  6.6750001900000004
 72.6821675298000116  0.0000000000000000  6.6750001900000004
 74.1073081109290825  0.0000000000000000  6.6750001900000004
 76.9575891492000039  0.0000000000000000  6.6750001900000004
 78.3827297303290749  0.0000000000000000  6.6750001900000004
 81.2330107686000105  0.0000000000000000  6.6750001900000004
 82.6581513497290814  0.0000000000000000  6.6750001900000004
 85.5084323880000028  0.0000000000000000  6.6750001900000004
 86.9335729691290737  0.0000000000000000  6.6750001900000004
 89.7838540074000093  0.0000000000000000  6.6750001900000004
 91.2089945885290803  0.0000000000000000  6.6750001900000004
 94.0592756268000016  0.0000000000000000  6.6750001900000004
 95.4844162079290726  0.0000000000000000  6.6750001900000004
 98.3346972462000082  0.0000000000000000  6.6750001900000004
 99.7598378273290791  0.0000000000000000  6.6750001900000004
 102.6101188656000147  0.0000000000000000  6.6750001900000004
 104.0352594467290857  0.0000000000000000  6.6750001900000004
 106.8855404850000070  0.0000000000000000  6.6750001900000004
 108.3106810661290780  0.0000000000000000  6.6750001900000004
 111.1609621044000136  0.0000000000000000  6.6750001900000004
 112.5861026855290845  0.0000000000000000  6.6750001900000004
 115.4363837238000059  0.0000000000000000  6.6750001900000004
 116.8615243049290768  0.0000000000000000  6.6750001900000004
 119.7118053432000124  0.0000000000000000  6.6750001900000004
 121.1369459243290834  0.0000000000000000  6.6750001900000004
 123.9872269626000048  0.0000000000000000  6.6750001900000004
 125.4123675437290757  0.0000000000000000  6.6750001900000004
 128.2626485819999971  0.0000000000000000  6.6750001900000004
 129.6877891631290822  0.0000000000000000  6.6750001900000004
 132.5380702014000178  0.0000000000000000  6.6750001900000004
 133.9632107825291030  0.0000000000000000  6.6750001900000004
 136.8134918208000101  0.0000000000000000  6.6750001900000004
 138.2386324019290953  0.0000000000000000  6.6750001900000004
 141.0889134402000025  0.0000000000000000  6.6750001900000004
 142.5140540213290876  0.0000000000000000  6.6750001900000004
 145.3643350596000232  0.0000000000000000  6.6750001900000004
 146.7894756407291084  0.0000000000000000  6.6750001900000004
 149.6397566790000155  0.0000000000000000  6.6750001900000004
 151.0648972601291007  0.0000000000000000  6.6750001900000004
 153.9151782984000079  0.0000000000000000  6.6750001900000004
 155.3403188795290930  0.0000000000000000  6.6750001900000004
 158.1905999178000002  0.0000000000000000  6.6750001900000004
 159.6157404989290853  0.0000000000000000  6.6750001900000004
 162.4660215372000209  0.0000000000000000  6.6750001900000004
 163.8911621183291061  0.0000000000000000  6.6750001900000004
 166.7414431566000133  0.0000000000000000  6.6750001900000004
 168.1665837377290984  0.0000000000000000  6.6750001900000004
  2.1377108097000002  1.2342079878000001  6.6750001900000004
  3.5628515190917245  1.2342079878000001  6.6750001900000004
  6.4131324291000009  1.2342079878000001  6.6750001900000004
  7.8382731384917248  1.2342079878000001  6.6750001900000004
 10.6885540485000003  1.2342079878000001  6.6750001900000004
 12.1136947578917251  1.2342079878000001  6.6750001900000004
 14.9639756679000016  1.2342079878000001  6.6750001900000004
 16.3891163772917281  1.2342079878000001  6.6750001900000004
 19.2393972873000010  1.2342079878000001  6.6750001900000004
 20.6645379966917275  1.2342079878000001  6.6750001900000004
 23.5148189067000004  1.2342079878000001  6.6750001900000004
 24.9399596160917270  1.2342079878000001  6.6750001900000004
 27.7902405261000034  1.2342079878000001  6.6750001900000004
 29.2153812354917264  1.2342079878000001  6.6750001900000004
 32.0656621455000064  1.2342079878000001  6.6750001900000004
 33.4908028548917258  1.2342079878000001  6.6750001900000004
 36.3410837649000058  1.2342079878000001  6.6750001900000004
 37.7662244742917252  1.2342079878000001  6.6750001900000004
 40.6165053843000052  1.2342079878000001  6.6750001900000004
 42.0416460936917247  1.2342079878000001  6.6750001900000004
 44.8919270037000047  1.2342079878000001  6.6750001900000004
 46.3170677130917241  1.2342079878000001  6.6750001900000004
 49.1673486231000041  1.2342079878000001  6.6750001900000004
 50.5924893324917235  1.2342079878000001  6.6750001900000004
 53.4427702425000106  1.2342079878000001  6.6750001900000004
 54.8679109518917301  1.2342079878000001  6.6750001900000004
 57.7181918619000101  1.2342079878000001  6.6750001900000004
 59.1433325712917295  1.2342079878000001  6.6750001900000004
 61.9936134813000095  1.2342079878000001  6.6750001900000004
 63.4187541906917289  1.2342079878000001  6.6750001900000004
 66.2690351006999947  1.2342079878000001  6.6750001900000004
 67.6941758100917212  1.2342079878000001  6.6750001900000004
 70.5444567201000012  1.2342079878000001  6.6750001900000004
 71.9695974294917278  1.2342079878000001  6.6750001900000004
 74.8198783395000078  1.2342079878000001  6.6750001900000004
 76.2450190488917343  1.2342079878000001  6.6750001900000004
 79.0952999589000001  1.2342079878000001  6.6750001900000004
 80.5204406682917266  1.2342079878000001  6.6750001900000004
 83.3707215783000066  1.2342079878000001  6.6750001900000004
 84.7958622876917332  1.2342079878000001  6.6750001900000004
 87.6461431976999990  1.2342079878000001  6.6750001900000004
 89.0712839070917255  1.2342079878000001  6.6750001900000004
 91.9215648171000055  1.2342079878000001  6.6750001900000004
 93.3467055264917320  1.2342079878000001  6.6750001900000004
 96.1969864364999978  1.2342079878000001  6.6750001900000004
 97.6221271458917244  1.2342079878000001  6.6750001900000004
 100.4724080559000043  1.2342079878000001  6.6750001900000004
 101.8975487652917309  1.2342079878000001  6.6750001900000004
 104.7478296753000109  1.2342079878000001  6.6750001900000004
 106.1729703846917374  1.2342079878000001  6.6750001900000004
 109.0232512947000032  1.2342079878000001  6.6750001900000004
 110.4483920040917297  1.2342079878000001  6.6750001900000004
 113.2986729141000097  1.2342079878000001  6.6750001900000004
 114.7238136234917363  1.2342079878000001  6.6750001900000004
 117.5740945335000021  1.2342079878000001  6.6750001900000004
 118.9992352428917286  1.2342079878000001  6.6750001900000004
 121.8495161529000086  1.2342079878000001  6.6750001900000004
 123.2746568622917351  1.2342079878000001  6.6750001900000004
 126.1249377723000009  1.2342079878000001  6.6750001900000004
 127.5500784816917275  1.2342079878000001  6.6750001900000004
 130.4003593916999932  1.2342079878000001  6.6750001900000004
 131.8255001010917340  1.2342079878000001  6.6750001900000004
 134.6757810111000140  1.2342079878000001  6.6750001900000004
 136.1009217204917547  1.2342079878000001  6.6750001900000004
 138.9512026305000063  1.2342079878000001  6.6750001900000004
 140.3763433398917471  1.2342079878000001  6.6750001900000004
 143.2266242498999986  1.2342079878000001  6.6750001900000004
 144.6517649592917394  1.2342079878000001  6.6750001900000004
 147.5020458693000194  1.2342079878000001  6.6750001900000004
 148.9271865786917601  1.2342079878000001  6.6750001900000004
 151.7774674887000117  1.2342079878000001  6.6750001900000004
 153.2026081980917525  1.2342079878000001  6.6750001900000004
 156.0528891081000040  1.2342079878000001  6.6750001900000004
 157.4780298174917448  1.2342079878000001  6.6750001900000004
 160.3283107274999963  1.2342079878000001  6.6750001900000004
 161.7534514368917371  1.2342079878000001  6.6750001900000004
 164.6037323469000171  1.2342079878000001  6.6750001900000004
 166.0288730562917578  1.2342079878000001  6.6750001900000004
 168.8791539663000094  1.2342079878000001  6.6750001900000004
 170.3042946756917502  1.2342079878000001  6.6750001900000004
