C 
 1.0000000000000000
    51.3050594328000074    0.0000000000000000    0.0000000000000000
     0.0000000000000000    4.9368319512000003    0.0000000000000000
     0.0000000000000000    0.0000000000000000   10.0000000000000000
 C  
 192
Cartesian
  1.4251405811290758  0.0000000000000000  3.3250001100000000
  2.8502811665335730  0.0000000000000000  3.3250001100000000
  5.7005622005290757  0.0000000000000000  3.3250001100000000
  7.1257027859335729  0.0000000000000000  3.3250001100000000
  9.9759838199290769  0.0000000000000000  3.3250001100000000
 11.4011244053335741  0.0000000000000000  3.3250001100000000
 14.2514054393290781  0.0000000000000000  3.3250001100000000
 15.6765460247335753  0.0000000000000000  3.3250001100000000
 18.5268270587290758  0.0000000000000000  3.3250001100000000
 19.9519676441335747  0.0000000000000000  3.3250001100000000
 22.8022486781290752  0.0000000000000000  3.3250001100000000
 24.2273892635335741  0.0000000000000000  3.3250001100000000
 27.0776702975290782  0.0000000000000000  3.3250001100000000
 28.5028108829335771  0.0000000000000000  3.3250001100000000
 31.3530919169290776  0.0000000000000000  3.3250001100000000
 32.7782325023335730  0.0000000000000000  3.3250001100000000
 35.6285135363290806  0.0000000000000000  3.3250001100000000
 37.0536541217335724  0.0000000000000000  3.3250001100000000
 39.9039351557290800  0.0000000000000000  3.3250001100000000
 41.3290757411335719  0.0000000000000000  3.3250001100000000
 44.1793567751290794  0.0000000000000000  3.3250001100000000
 45.6044973605335713  0.0000000000000000  3.3250001100000000
 48.4547783945290789  0.0000000000000000  3.3250001100000000
 49.8799189799335707  0.0000000000000000  3.3250001100000000
  0.7125702927022486  1.2342079878000001  3.3250001100000000
  3.5628515190917245  1.2342079878000001  3.3250001100000000
  4.9879919121022489  1.2342079878000001  3.3250001100000000
  7.8382731384917248  1.2342079878000001  3.3250001100000000
  9.2634135315022483  1.2342079878000001  3.3250001100000000
 12.1136947578917251  1.2342079878000001  3.3250001100000000
 13.5388351509022513  1.2342079878000001  3.3250001100000000
 16.3891163772917281  1.2342079878000001  3.3250001100000000
 17.8142567703022507  1.2342079878000001  3.3250001100000000
 20.6645379966917275  1.2342079878000001  3.3250001100000000
 22.0896783897022502  1.2342079878000001  3.3250001100000000
 24.9399596160917270  1.2342079878000001  3.3250001100000000
 26.3651000091022532  1.2342079878000001  3.3250001100000000
 29.2153812354917264  1.2342079878000001  3.3250001100000000
 30.6405216285022526  1.2342079878000001  3.3250001100000000
 33.4908028548917258  1.2342079878000001  3.3250001100000000
 34.9159432479022485  1.2342079878000001  3.3250001100000000
 37.7662244742917252  1.2342079878000001  3.3250001100000000
 39.1913648673022479  1.2342079878000001  3.3250001100000000
 42.0416460936917247  1.2342079878000001  3.3250001100000000
 43.4667864867022473  1.2342079878000001  3.3250001100000000
 46.3170677130917241  1.2342079878000001  3.3250001100000000
 47.7422081061022467  1.2342079878000001  3.3250001100000000
 50.5924893324917235  1.2342079878000001  3.3250001100000000
  1.4251405811290758  2.4684159756000001  3.3250001100000000
  2.8502811665335730  2.4684159756000001  3.3250001100000000
  5.7005622005290757  2.4684159756000001  3.3250001100000000
  7.1257027859335729  2.4684159756000001  3.3250001100000000
  9.9759838199290769  2.4684159756000001  3.3250001100000000
 11.4011244053335741  2.4684159756000001  3.3250001100000000
 14.2514054393290781  2.4684159756000001  3.3250001100000000
 15.6765460247335753  2.4684159756000001  3.3250001100000000
 18.5268270587290758  2.4684159756000001  3.3250001100000000
 19.9519676441335747  2.4684159756000001  3.3250001100000000
 22.8022486781290752  2.4684159756000001  3.3250001100000000
 24.2273892635335741  2.4684159756000001  3.3250001100000000
 27.0776702975290782  2.4684159756000001  3.3250001100000000
 28.5028108829335771  2.4684159756000001  3.3250001100000000
 31.3530919169290776  2.4684159756000001  3.3250001100000000
 32.7782325023335730  2.4684159756000001  3.3250001100000000
 35.6285135363290806  2.4684159756000001  3.3250001100000000
 37.0536541217335724  2.4684159756000001  3.3250001100000000
 39.9039351557290800  2.4684159756000001  3.3250001100000000
 41.3290757411335719  2.4684159756000001  3.3250001100000000
 44.1793567751290794  2.4684159756000001  3.3250001100000000
 45.6044973605335713  2.4684159756000001  3.3250001100000000
 48.4547783945290789  2.4684159756000001  3.3250001100000000
 49.8799189799335707  2.4684159756000001  3.3250001100000000
  0.7125702927022486  3.7026239634000002  3.3250001100000000
  3.5628515190917245  3.7026239634000002  3.3250001100000000
  4.9879919121022489  3.7026239634000002  3.3250001100000000
  7.8382731384917248  3.7026239634000002  3.3250001100000000
  9.2634135315022483  3.7026239634000002  3.3250001100000000
 12.1136947578917251  3.7026239634000002  3.3250001100000000
 13.5388351509022513  3.7026239634000002  3.3250001100000000
 16.3891163772917281  3.7026239634000002  3.3250001100000000
 17.8142567703022507  3.7026239634000002  3.3250001100000000
 20.6645379966917275  3.7026239634000002  3.3250001100000000
 22.0896783897022502  3.7026239634000002  3.3250001100000000
 24.9399596160917270  3.7026239634000002  3.3250001100000000
 26.3651000091022532  3.7026239634000002  3.3250001100000000
 29.2153812354917264  3.7026239634000002  3.3250001100000000
 30.6405216285022526  3.7026239634000002  3.3250001100000000
 33.4908028548917258  3.7026239634000002  3.3250001100000000
 34.9159432479022485  3.7026239634000002  3.3250001100000000
 37.7662244742917252  3.7026239634000002  3.3250001100000000
 39.1913648673022479  3.7026239634000002  3.3250001100000000
 42.0416460936917247  3.7026239634000002  3.3250001100000000
 43.4667864867022473  3.7026239634000002  3.3250001100000000
 46.3170677130917241  3.7026239634000002  3.3250001100000000
 47.7422081061022467  3.7026239634000002  3.3250001100000000
 50.5924893324917235  3.7026239634000002  3.3250001100000000
  0.0000000000000000  0.0000000000000000  6.6750001900000004
  1.4251405811290758  0.0000000000000000  6.6750001900000004
  4.2754216194000003  0.0000000000000000  6.6750001900000004
  5.7005622005290757  0.0000000000000000  6.6750001900000004
  8.5508432388000006  0.0000000000000000  6.6750001900000004
  9.9759838199290769  0.0000000000000000  6.6750001900000004
 12.8262648582000018  0.0000000000000000  6.6750001900000004
 14.2514054393290781  0.0000000000000000  6.6750001900000004
 17.1016864776000013  0.0000000000000000  6.6750001900000004
 18.5268270587290758  0.0000000000000000  6.6750001900000004
 21.3771080970000007  0.0000000000000000  6.6750001900000004
 22.8022486781290752  0.0000000000000000  6.6750001900000004
 25.6525297164000037  0.0000000000000000  6.6750001900000004
 27.0776702975290782  0.0000000000000000  6.6750001900000004
 29.9279513358000031  0.0000000000000000  6.6750001900000004
 31.3530919169290776  0.0000000000000000  6.6750001900000004
 34.2033729552000025  0.0000000000000000  6.6750001900000004
 35.6285135363290806  0.0000000000000000  6.6750001900000004
 38.4787945746000020  0.0000000000000000  6.6750001900000004
 39.9039351557290800  0.0000000000000000  6.6750001900000004
 42.7542161940000014  0.0000000000000000  6.6750001900000004
 44.1793567751290794  0.0000000000000000  6.6750001900000004
 47.0296378134000008  0.0000000000000000  6.6750001900000004
 48.4547783945290789  0.0000000000000000  6.6750001900000004
  2.1377108097000002  1.2342079878000001  6.6750001900000004
  3.5628515190917245  1.2342079878000001  6.6750001900000004
  6.4131324291000009  1.2342079878000001  6.6750001900000004
  7.8382731384917248  1.2342079878000001  6.6750001900000004
 10.6885540485000003  1.2342079878000001  6.6750001900000004
 12.1136947578917251  1.2342079878000001  6.6750001900000004
 14.9639756679000016  1.2342079878000001  6.6750001900000004
 16.3891163772917281  1.2342079878000001  6.6750001900000004
 19.2393972873000010  1.2342079878000001  6.6750001900000004
 20.6645379966917275  1.2342079878000001  6.6750001900000004
 23.5148189067000004  1.2342079878000001  6.6750001900000004
 24.9399596160917270  1.2342079878000001  6.6750001900000004
 27.7902405261000034  1.2342079878000001  6.6750001900000004
 29.2153812354917264  1.2342079878000001  6.6750001900000004
 32.0656621455000064  1.2342079878000001  6.6750001900000004
 33.4908028548917258  1.2342079878000001  6.6750001900000004
 36.3410837649000058  1.2342079878000001  6.6750001900000004
 37.7662244742917252  1.2342079878000001  6.6750001900000004
 40.6165053843000052  1.2342079878000001  6.6750001900000004
 42.0416460936917247  1.2342079878000001  6.6750001900000004
 44.8919270037000047  1.2342079878000001  6.6750001900000004
 46.3170677130917241  1.2342079878000001  6.6750001900000004
 49.1673486231000041  1.2342079878000001  6.6750001900000004
 50.5924893324917235  1.2342079878000001  6.6750001900000004
  0.0000000000000000  2.4684159756000001  6.6750001900000004
  1.4251405811290758  2.4684159756000001  6.6750001900000004
  4.2754216194000003  2.4684159756000001  6.6750001900000004
  5.7005622005290757  2.4684159756000001  6.6750001900000004
  8.5508432388000006  2.4684159756000001  6.6750001900000004
  9.9759838199290769  2.4684159756000001  6.6750001900000004
 12.8262648582000018  2.4684159756000001  6.6750001900000004
 14.2514054393290781  2.4684159756000001  6.6750001900000004
 17.1016864776000013  2.4684159756000001  6.6750001900000004
 18.5268270587290758  2.4684159756000001  6.6750001900000004
 21.3771080970000007  2.4684159756000001  6.6750001900000004
 22.8022486781290752  2.4684159756000001  6.6750001900000004
 25.6525297164000037  2.4684159756000001  6.6750001900000004
 27.0776702975290782  2.4684159756000001  6.6750001900000004
 29.9279513358000031  2.4684159756000001  6.6750001900000004
 31.3530919169290776  2.4684159756000001  6.6750001900000004
 34.2033729552000025  2.4684159756000001  6.6750001900000004
 35.6285135363290806  2.4684159756000001  6.6750001900000004
 38.4787945746000020  2.4684159756000001  6.6750001900000004
 39.9039351557290800  2.4684159756000001  6.6750001900000004
 42.7542161940000014  2.4684159756000001  6.6750001900000004
 44.1793567751290794  2.4684159756000001  6.6750001900000004
 47.0296378134000008  2.4684159756000001  6.6750001900000004
 48.4547783945290789  2.4684159756000001  6.6750001900000004
  2.1377108097000002  3.7026239634000002  6.6750001900000004
  3.5628515190917245  3.7026239634000002  6.6750001900000004
  6.4131324291000009  3.7026239634000002  6.6750001900000004
  7.8382731384917248  3.7026239634000002  6.6750001900000004
 10.6885540485000003  3.7026239634000002  6.6750001900000004
 12.1136947578917251  3.7026239634000002  6.6750001900000004
 14.9639756679000016  3.7026239634000002  6.6750001900000004
 16.3891163772917281  3.7026239634000002  6.6750001900000004
 19.2393972873000010  3.7026239634000002  6.6750001900000004
 20.6645379966917275  3.7026239634000002  6.6750001900000004
 23.5148189067000004  3.7026239634000002  6.6750001900000004
 24.9399596160917270  3.7026239634000002  6.6750001900000004
 27.7902405261000034  3.7026239634000002  6.6750001900000004
 29.2153812354917264  3.7026239634000002  6.6750001900000004
 32.0656621455000064  3.7026239634000002  6.6750001900000004
 33.4908028548917258  3.7026239634000002  6.6750001900000004
 36.3410837649000058  3.7026239634000002  6.6750001900000004
 37.7662244742917252  3.7026239634000002  6.6750001900000004
 40.6165053843000052  3.7026239634000002  6.6750001900000004
 42.0416460936917247  3.7026239634000002  6.6750001900000004
 44.8919270037000047  3.7026239634000002  6.6750001900000004
 46.3170677130917241  3.7026239634000002  6.6750001900000004
 49.1673486231000041  3.7026239634000002  6.6750001900000004
 50.5924893324917235  3.7026239634000002  6.6750001900000004
