graphene_4by4
1.0
        9.8400001526         0.0000000000         0.0000000000
       -4.9200000763         8.5216901054         0.0000000000
        0.0000000000         0.0000000000        10.0000000000
    C
   32
Direct
     0.083333336         0.166666672         0.000000000
     0.083333336         0.416666687         0.000000000
     0.083333336         0.666666687         0.000000000
     0.083333336         0.916666687         0.000000000
     0.333333343         0.166666672         0.000000000
     0.333333343         0.416666687         0.000000000
     0.333333343         0.666666687         0.000000000
     0.333333343         0.916666687         0.000000000
     0.583333313         0.166666672         0.000000000
     0.583333313         0.416666687         0.000000000
     0.583333313         0.666666687         0.000000000
     0.583333313         0.916666687         0.000000000
     0.833333313         0.166666672         0.000000000
     0.833333313         0.416666687         0.000000000
     0.833333313         0.666666687         0.000000000
     0.833333313         0.916666687         0.000000000
     0.166666657         0.083333328         0.000000000
     0.166666657         0.333333313         0.000000000
     0.166666657         0.583333313         0.000000000
     0.166666657         0.833333313         0.000000000
     0.416666657         0.083333328         0.000000000
     0.416666657         0.333333313         0.000000000
     0.416666657         0.583333313         0.000000000
     0.416666657         0.833333313         0.000000000
     0.666666627         0.083333328         0.000000000
     0.666666627         0.333333313         0.000000000
     0.666666627         0.583333313         0.000000000
     0.666666627         0.833333313         0.000000000
     0.916666627         0.083333328         0.000000000
     0.916666627         0.333333313         0.000000000
     0.916666627         0.583333313         0.000000000
     0.916666627         0.833333313         0.000000000
