Graphene
1.0
        4.9200000763         0.0000000000         0.0000000000
        2.4599997545         4.2608452165         0.0000000000
        0.0000000000         0.0000000000        10.0000000000
    C
    8
Direct
     0.166666627         0.166666627         0.000000000
     0.166666627         0.666666567         0.000000000
     0.333333284         0.333333284         0.000000000
     0.333333284         0.833333254         0.000000000
     0.666666567         0.166666627         0.000000000
     0.666666567         0.666666567         0.000000000
     0.833333254         0.333333284         0.000000000
     0.833333254         0.833333254         0.000000000
