POSCAR for generated by WannierTools
1.0
    4.260845    0.000000    0.000000
    0.000000    2.460000    0.000000
    0.000000    0.000000   10.000000
C     
     4
Direct
    0.833333    0.500000    0.000000        C
    0.333333    0.000000    0.000000        C
    0.166667    0.500000    0.000000        C
    0.666667    0.000000    0.000000        C
