POSCAR for slab defined by SURFACE card and Nslab and Vacuum_thickness_in_Angstrom in wt.in by WannierTools
1.0
    4.920000    0.000000    0.000000
   -2.460000    4.260845    0.000000
    0.000000    0.000000  110.583544
C     
    80
Cartesian
    0.000002    1.420280   14.791772        C
    0.000002    1.420280   24.791772        C
    0.000002    1.420280   34.791772        C
    0.000002    1.420280   44.791772        C
    0.000002    1.420280   54.791772        C
    0.000002    1.420280   64.791772        C
    0.000002    1.420280   74.791772        C
    0.000002    1.420280   84.791772        C
    0.000002    1.420280   94.791772        C
    0.000002    1.420280  104.791772        C
   -1.229998    3.550703   14.791772        C
   -1.229998    3.550703   24.791772        C
   -1.229998    3.550703   34.791772        C
   -1.229998    3.550703   44.791772        C
   -1.229998    3.550703   54.791772        C
   -1.229998    3.550703   64.791772        C
   -1.229998    3.550703   74.791772        C
   -1.229998    3.550703   84.791772        C
   -1.229998    3.550703   94.791772        C
   -1.229998    3.550703  104.791772        C
    1.229998    0.710142   14.791772        C
    1.229998    0.710142   24.791772        C
    1.229998    0.710142   34.791772        C
    1.229998    0.710142   44.791772        C
    1.229998    0.710142   54.791772        C
    1.229998    0.710142   64.791772        C
    1.229998    0.710142   74.791772        C
    1.229998    0.710142   84.791772        C
    1.229998    0.710142   94.791772        C
    1.229998    0.710142  104.791772        C
   -0.000002    2.840565   14.791772        C
   -0.000002    2.840565   24.791772        C
   -0.000002    2.840565   34.791772        C
   -0.000002    2.840565   44.791772        C
   -0.000002    2.840565   54.791772        C
   -0.000002    2.840565   64.791772        C
   -0.000002    2.840565   74.791772        C
   -0.000002    2.840565   84.791772        C
   -0.000002    2.840565   94.791772        C
   -0.000002    2.840565  104.791772        C
    1.230002    3.550703   14.791772        C
    1.230002    3.550703   24.791772        C
    1.230002    3.550703   34.791772        C
    1.230002    3.550703   44.791772        C
    1.230002    3.550703   54.791772        C
    1.230002    3.550703   64.791772        C
    1.230002    3.550703   74.791772        C
    1.230002    3.550703   84.791772        C
    1.230002    3.550703   94.791772        C
    1.230002    3.550703  104.791772        C
    2.460002    1.420280   14.791772        C
    2.460002    1.420280   24.791772        C
    2.460002    1.420280   34.791772        C
    2.460002    1.420280   44.791772        C
    2.460002    1.420280   54.791772        C
    2.460002    1.420280   64.791772        C
    2.460002    1.420280   74.791772        C
    2.460002    1.420280   84.791772        C
    2.460002    1.420280   94.791772        C
    2.460002    1.420280  104.791772        C
    3.689998    0.710142   14.791772        C
    3.689998    0.710142   24.791772        C
    3.689998    0.710142   34.791772        C
    3.689998    0.710142   44.791772        C
    3.689998    0.710142   54.791772        C
    3.689998    0.710142   64.791772        C
    3.689998    0.710142   74.791772        C
    3.689998    0.710142   84.791772        C
    3.689998    0.710142   94.791772        C
    3.689998    0.710142  104.791772        C
    2.459998    2.840565   14.791772        C
    2.459998    2.840565   24.791772        C
    2.459998    2.840565   34.791772        C
    2.459998    2.840565   44.791772        C
    2.459998    2.840565   54.791772        C
    2.459998    2.840565   64.791772        C
    2.459998    2.840565   74.791772        C
    2.459998    2.840565   84.791772        C
    2.459998    2.840565   94.791772        C
    2.459998    2.840565  104.791772        C
