POSCAR for generated by WannierTools
1.0
    4.920000    0.000000    0.000000
   -2.460000    4.260845    0.000000
    0.000000    0.000000  100.000000
C     
    80
Direct
    0.166667    0.333333    0.000000        C
    0.166667    0.833333    0.000000        C
    0.333333    0.166667    0.000000        C
    0.333333    0.666667    0.000000        C
    0.666667    0.833333    0.000000        C
    0.666667    0.333333    0.000000        C
    0.833333    0.166667    0.000000        C
    0.833333    0.666667    0.000000        C
    0.166667    0.333333    0.100000        C
    0.166667    0.833333    0.100000        C
    0.333333    0.166667    0.100000        C
    0.333333    0.666667    0.100000        C
    0.666667    0.833333    0.100000        C
    0.666667    0.333333    0.100000        C
    0.833333    0.166667    0.100000        C
    0.833333    0.666667    0.100000        C
    0.166667    0.333333    0.200000        C
    0.166667    0.833333    0.200000        C
    0.333333    0.166667    0.200000        C
    0.333333    0.666667    0.200000        C
    0.666667    0.833333    0.200000        C
    0.666667    0.333333    0.200000        C
    0.833333    0.166667    0.200000        C
    0.833333    0.666667    0.200000        C
    0.166667    0.333333    0.300000        C
    0.166667    0.833333    0.300000        C
    0.333333    0.166667    0.300000        C
    0.333333    0.666667    0.300000        C
    0.666667    0.833333    0.300000        C
    0.666667    0.333333    0.300000        C
    0.833333    0.166667    0.300000        C
    0.833333    0.666667    0.300000        C
    0.166667    0.333333    0.400000        C
    0.166667    0.833333    0.400000        C
    0.333333    0.166667    0.400000        C
    0.333333    0.666667    0.400000        C
    0.666667    0.833333    0.400000        C
    0.666667    0.333333    0.400000        C
    0.833333    0.166667    0.400000        C
    0.833333    0.666667    0.400000        C
    0.166667    0.333333    0.500000        C
    0.166667    0.833333    0.500000        C
    0.333333    0.166667    0.500000        C
    0.333333    0.666667    0.500000        C
    0.666667    0.833333    0.500000        C
    0.666667    0.333333    0.500000        C
    0.833333    0.166667    0.500000        C
    0.833333    0.666667    0.500000        C
    0.166667    0.333333    0.600000        C
    0.166667    0.833333    0.600000        C
    0.333333    0.166667    0.600000        C
    0.333333    0.666667    0.600000        C
    0.666667    0.833333    0.600000        C
    0.666667    0.333333    0.600000        C
    0.833333    0.166667    0.600000        C
    0.833333    0.666667    0.600000        C
    0.166667    0.333333    0.700000        C
    0.166667    0.833333    0.700000        C
    0.333333    0.166667    0.700000        C
    0.333333    0.666667    0.700000        C
    0.666667    0.833333    0.700000        C
    0.666667    0.333333    0.700000        C
    0.833333    0.166667    0.700000        C
    0.833333    0.666667    0.700000        C
    0.166667    0.333333    0.800000        C
    0.166667    0.833333    0.800000        C
    0.333333    0.166667    0.800000        C
    0.333333    0.666667    0.800000        C
    0.666667    0.833333    0.800000        C
    0.666667    0.333333    0.800000        C
    0.833333    0.166667    0.800000        C
    0.833333    0.666667    0.800000        C
    0.166667    0.333333    0.900000        C
    0.166667    0.833333    0.900000        C
    0.333333    0.166667    0.900000        C
    0.333333    0.666667    0.900000        C
    0.666667    0.833333    0.900000        C
    0.666667    0.333333    0.900000        C
    0.833333    0.166667    0.900000        C
    0.833333    0.666667    0.900000        C
