C 
 1.0000000000000000
    47.0296378134000008    0.0000000000000000    0.0000000000000000
     0.0000000000000000   27.1525757316000025    0.0000000000000000
     0.0000000000000000    0.0000000000000000   10.0000000000000000
 C  
 968
Cartesian
  1.4251405811290758  0.0000000000000000  3.3250001100000000
  2.8502811665335730  0.0000000000000000  3.3250001100000000
  5.7005622005290757  0.0000000000000000  3.3250001100000000
  7.1257027859335729  0.0000000000000000  3.3250001100000000
  9.9759838199290769  0.0000000000000000  3.3250001100000000
 11.4011244053335741  0.0000000000000000  3.3250001100000000
 14.2514054393290781  0.0000000000000000  3.3250001100000000
 15.6765460247335753  0.0000000000000000  3.3250001100000000
 18.5268270587290758  0.0000000000000000  3.3250001100000000
 19.9519676441335747  0.0000000000000000  3.3250001100000000
 22.8022486781290752  0.0000000000000000  3.3250001100000000
 24.2273892635335741  0.0000000000000000  3.3250001100000000
 27.0776702975290782  0.0000000000000000  3.3250001100000000
 28.5028108829335771  0.0000000000000000  3.3250001100000000
 31.3530919169290776  0.0000000000000000  3.3250001100000000
 32.7782325023335730  0.0000000000000000  3.3250001100000000
 35.6285135363290806  0.0000000000000000  3.3250001100000000
 37.0536541217335724  0.0000000000000000  3.3250001100000000
 39.9039351557290800  0.0000000000000000  3.3250001100000000
 41.3290757411335719  0.0000000000000000  3.3250001100000000
 44.1793567751290794  0.0000000000000000  3.3250001100000000
 45.6044973605335713  0.0000000000000000  3.3250001100000000
  0.7125702927022486  1.2342079878000001  3.3250001100000000
  3.5628515190917245  1.2342079878000001  3.3250001100000000
  4.9879919121022489  1.2342079878000001  3.3250001100000000
  7.8382731384917248  1.2342079878000001  3.3250001100000000
  9.2634135315022483  1.2342079878000001  3.3250001100000000
 12.1136947578917251  1.2342079878000001  3.3250001100000000
 13.5388351509022513  1.2342079878000001  3.3250001100000000
 16.3891163772917281  1.2342079878000001  3.3250001100000000
 17.8142567703022507  1.2342079878000001  3.3250001100000000
 20.6645379966917275  1.2342079878000001  3.3250001100000000
 22.0896783897022502  1.2342079878000001  3.3250001100000000
 24.9399596160917270  1.2342079878000001  3.3250001100000000
 26.3651000091022532  1.2342079878000001  3.3250001100000000
 29.2153812354917264  1.2342079878000001  3.3250001100000000
 30.6405216285022526  1.2342079878000001  3.3250001100000000
 33.4908028548917258  1.2342079878000001  3.3250001100000000
 34.9159432479022485  1.2342079878000001  3.3250001100000000
 37.7662244742917252  1.2342079878000001  3.3250001100000000
 39.1913648673022479  1.2342079878000001  3.3250001100000000
 42.0416460936917247  1.2342079878000001  3.3250001100000000
 43.4667864867022473  1.2342079878000001  3.3250001100000000
 46.3170677130917241  1.2342079878000001  3.3250001100000000
  1.4251405811290758  2.4684159756000001  3.3250001100000000
  2.8502811665335730  2.4684159756000001  3.3250001100000000
  5.7005622005290757  2.4684159756000001  3.3250001100000000
  7.1257027859335729  2.4684159756000001  3.3250001100000000
  9.9759838199290769  2.4684159756000001  3.3250001100000000
 11.4011244053335741  2.4684159756000001  3.3250001100000000
 14.2514054393290781  2.4684159756000001  3.3250001100000000
 15.6765460247335753  2.4684159756000001  3.3250001100000000
 18.5268270587290758  2.4684159756000001  3.3250001100000000
 19.9519676441335747  2.4684159756000001  3.3250001100000000
 22.8022486781290752  2.4684159756000001  3.3250001100000000
 24.2273892635335741  2.4684159756000001  3.3250001100000000
 27.0776702975290782  2.4684159756000001  3.3250001100000000
 28.5028108829335771  2.4684159756000001  3.3250001100000000
 31.3530919169290776  2.4684159756000001  3.3250001100000000
 32.7782325023335730  2.4684159756000001  3.3250001100000000
 35.6285135363290806  2.4684159756000001  3.3250001100000000
 37.0536541217335724  2.4684159756000001  3.3250001100000000
 39.9039351557290800  2.4684159756000001  3.3250001100000000
 41.3290757411335719  2.4684159756000001  3.3250001100000000
 44.1793567751290794  2.4684159756000001  3.3250001100000000
 45.6044973605335713  2.4684159756000001  3.3250001100000000
  0.7125702927022486  3.7026239634000002  3.3250001100000000
  3.5628515190917245  3.7026239634000002  3.3250001100000000
  4.9879919121022489  3.7026239634000002  3.3250001100000000
  7.8382731384917248  3.7026239634000002  3.3250001100000000
  9.2634135315022483  3.7026239634000002  3.3250001100000000
 12.1136947578917251  3.7026239634000002  3.3250001100000000
 13.5388351509022513  3.7026239634000002  3.3250001100000000
 16.3891163772917281  3.7026239634000002  3.3250001100000000
 17.8142567703022507  3.7026239634000002  3.3250001100000000
 20.6645379966917275  3.7026239634000002  3.3250001100000000
 22.0896783897022502  3.7026239634000002  3.3250001100000000
 24.9399596160917270  3.7026239634000002  3.3250001100000000
 26.3651000091022532  3.7026239634000002  3.3250001100000000
 29.2153812354917264  3.7026239634000002  3.3250001100000000
 30.6405216285022526  3.7026239634000002  3.3250001100000000
 33.4908028548917258  3.7026239634000002  3.3250001100000000
 34.9159432479022485  3.7026239634000002  3.3250001100000000
 37.7662244742917252  3.7026239634000002  3.3250001100000000
 39.1913648673022479  3.7026239634000002  3.3250001100000000
 42.0416460936917247  3.7026239634000002  3.3250001100000000
 43.4667864867022473  3.7026239634000002  3.3250001100000000
 46.3170677130917241  3.7026239634000002  3.3250001100000000
  1.4251405811290758  4.9368319512000003  3.3250001100000000
  2.8502811665335730  4.9368319512000003  3.3250001100000000
  5.7005622005290757  4.9368319512000003  3.3250001100000000
  7.1257027859335729  4.9368319512000003  3.3250001100000000
  9.9759838199290769  4.9368319512000003  3.3250001100000000
 11.4011244053335741  4.9368319512000003  3.3250001100000000
 14.2514054393290781  4.9368319512000003  3.3250001100000000
 15.6765460247335753  4.9368319512000003  3.3250001100000000
 18.5268270587290758  4.9368319512000003  3.3250001100000000
 19.9519676441335747  4.9368319512000003  3.3250001100000000
 22.8022486781290752  4.9368319512000003  3.3250001100000000
 24.2273892635335741  4.9368319512000003  3.3250001100000000
 27.0776702975290782  4.9368319512000003  3.3250001100000000
 28.5028108829335771  4.9368319512000003  3.3250001100000000
 31.3530919169290776  4.9368319512000003  3.3250001100000000
 32.7782325023335730  4.9368319512000003  3.3250001100000000
 35.6285135363290806  4.9368319512000003  3.3250001100000000
 37.0536541217335724  4.9368319512000003  3.3250001100000000
 39.9039351557290800  4.9368319512000003  3.3250001100000000
 41.3290757411335719  4.9368319512000003  3.3250001100000000
 44.1793567751290794  4.9368319512000003  3.3250001100000000
 45.6044973605335713  4.9368319512000003  3.3250001100000000
  0.7125702927022486  6.1710399389999999  3.3250001100000000
  3.5628515190917245  6.1710399389999999  3.3250001100000000
  4.9879919121022489  6.1710399389999999  3.3250001100000000
  7.8382731384917248  6.1710399389999999  3.3250001100000000
  9.2634135315022483  6.1710399389999999  3.3250001100000000
 12.1136947578917251  6.1710399389999999  3.3250001100000000
 13.5388351509022513  6.1710399389999999  3.3250001100000000
 16.3891163772917281  6.1710399389999999  3.3250001100000000
 17.8142567703022507  6.1710399389999999  3.3250001100000000
 20.6645379966917275  6.1710399389999999  3.3250001100000000
 22.0896783897022502  6.1710399389999999  3.3250001100000000
 24.9399596160917270  6.1710399389999999  3.3250001100000000
 26.3651000091022532  6.1710399389999999  3.3250001100000000
 29.2153812354917264  6.1710399389999999  3.3250001100000000
 30.6405216285022526  6.1710399389999999  3.3250001100000000
 33.4908028548917258  6.1710399389999999  3.3250001100000000
 34.9159432479022485  6.1710399389999999  3.3250001100000000
 37.7662244742917252  6.1710399389999999  3.3250001100000000
 39.1913648673022479  6.1710399389999999  3.3250001100000000
 42.0416460936917247  6.1710399389999999  3.3250001100000000
 43.4667864867022473  6.1710399389999999  3.3250001100000000
 46.3170677130917241  6.1710399389999999  3.3250001100000000
  1.4251405811290758  7.4052479268000004  3.3250001100000000
  2.8502811665335730  7.4052479268000004  3.3250001100000000
  5.7005622005290757  7.4052479268000004  3.3250001100000000
  7.1257027859335729  7.4052479268000004  3.3250001100000000
  9.9759838199290769  7.4052479268000004  3.3250001100000000
 11.4011244053335741  7.4052479268000004  3.3250001100000000
 14.2514054393290781  7.4052479268000004  3.3250001100000000
 15.6765460247335753  7.4052479268000004  3.3250001100000000
 18.5268270587290758  7.4052479268000004  3.3250001100000000
 19.9519676441335747  7.4052479268000004  3.3250001100000000
 22.8022486781290752  7.4052479268000004  3.3250001100000000
 24.2273892635335741  7.4052479268000004  3.3250001100000000
 27.0776702975290782  7.4052479268000004  3.3250001100000000
 28.5028108829335771  7.4052479268000004  3.3250001100000000
 31.3530919169290776  7.4052479268000004  3.3250001100000000
 32.7782325023335730  7.4052479268000004  3.3250001100000000
 35.6285135363290806  7.4052479268000004  3.3250001100000000
 37.0536541217335724  7.4052479268000004  3.3250001100000000
 39.9039351557290800  7.4052479268000004  3.3250001100000000
 41.3290757411335719  7.4052479268000004  3.3250001100000000
 44.1793567751290794  7.4052479268000004  3.3250001100000000
 45.6044973605335713  7.4052479268000004  3.3250001100000000
  0.7125702927022486  8.6394559146000010  3.3250001100000000
  3.5628515190917245  8.6394559146000010  3.3250001100000000
  4.9879919121022489  8.6394559146000010  3.3250001100000000
  7.8382731384917248  8.6394559146000010  3.3250001100000000
  9.2634135315022483  8.6394559146000010  3.3250001100000000
 12.1136947578917251  8.6394559146000010  3.3250001100000000
 13.5388351509022513  8.6394559146000010  3.3250001100000000
 16.3891163772917281  8.6394559146000010  3.3250001100000000
 17.8142567703022507  8.6394559146000010  3.3250001100000000
 20.6645379966917275  8.6394559146000010  3.3250001100000000
 22.0896783897022502  8.6394559146000010  3.3250001100000000
 24.9399596160917270  8.6394559146000010  3.3250001100000000
 26.3651000091022532  8.6394559146000010  3.3250001100000000
 29.2153812354917264  8.6394559146000010  3.3250001100000000
 30.6405216285022526  8.6394559146000010  3.3250001100000000
 33.4908028548917258  8.6394559146000010  3.3250001100000000
 34.9159432479022485  8.6394559146000010  3.3250001100000000
 37.7662244742917252  8.6394559146000010  3.3250001100000000
 39.1913648673022479  8.6394559146000010  3.3250001100000000
 42.0416460936917247  8.6394559146000010  3.3250001100000000
 43.4667864867022473  8.6394559146000010  3.3250001100000000
 46.3170677130917241  8.6394559146000010  3.3250001100000000
  1.4251405811290758  9.8736639024000006  3.3250001100000000
  2.8502811665335730  9.8736639024000006  3.3250001100000000
  5.7005622005290757  9.8736639024000006  3.3250001100000000
  7.1257027859335729  9.8736639024000006  3.3250001100000000
  9.9759838199290769  9.8736639024000006  3.3250001100000000
 11.4011244053335741  9.8736639024000006  3.3250001100000000
 14.2514054393290781  9.8736639024000006  3.3250001100000000
 15.6765460247335753  9.8736639024000006  3.3250001100000000
 18.5268270587290758  9.8736639024000006  3.3250001100000000
 19.9519676441335747  9.8736639024000006  3.3250001100000000
 22.8022486781290752  9.8736639024000006  3.3250001100000000
 24.2273892635335741  9.8736639024000006  3.3250001100000000
 27.0776702975290782  9.8736639024000006  3.3250001100000000
 28.5028108829335771  9.8736639024000006  3.3250001100000000
 31.3530919169290776  9.8736639024000006  3.3250001100000000
 32.7782325023335730  9.8736639024000006  3.3250001100000000
 35.6285135363290806  9.8736639024000006  3.3250001100000000
 37.0536541217335724  9.8736639024000006  3.3250001100000000
 39.9039351557290800  9.8736639024000006  3.3250001100000000
 41.3290757411335719  9.8736639024000006  3.3250001100000000
 44.1793567751290794  9.8736639024000006  3.3250001100000000
 45.6044973605335713  9.8736639024000006  3.3250001100000000
  0.7125702927022486 11.1078718902000002  3.3250001100000000
  3.5628515190917245 11.1078718902000002  3.3250001100000000
  4.9879919121022489 11.1078718902000002  3.3250001100000000
  7.8382731384917248 11.1078718902000002  3.3250001100000000
  9.2634135315022483 11.1078718902000002  3.3250001100000000
 12.1136947578917251 11.1078718902000002  3.3250001100000000
 13.5388351509022513 11.1078718902000002  3.3250001100000000
 16.3891163772917281 11.1078718902000002  3.3250001100000000
 17.8142567703022507 11.1078718902000002  3.3250001100000000
 20.6645379966917275 11.1078718902000002  3.3250001100000000
 22.0896783897022502 11.1078718902000002  3.3250001100000000
 24.9399596160917270 11.1078718902000002  3.3250001100000000
 26.3651000091022532 11.1078718902000002  3.3250001100000000
 29.2153812354917264 11.1078718902000002  3.3250001100000000
 30.6405216285022526 11.1078718902000002  3.3250001100000000
 33.4908028548917258 11.1078718902000002  3.3250001100000000
 34.9159432479022485 11.1078718902000002  3.3250001100000000
 37.7662244742917252 11.1078718902000002  3.3250001100000000
 39.1913648673022479 11.1078718902000002  3.3250001100000000
 42.0416460936917247 11.1078718902000002  3.3250001100000000
 43.4667864867022473 11.1078718902000002  3.3250001100000000
 46.3170677130917241 11.1078718902000002  3.3250001100000000
  1.4251405811290758 12.3420798779999998  3.3250001100000000
  2.8502811665335730 12.3420798779999998  3.3250001100000000
  5.7005622005290757 12.3420798779999998  3.3250001100000000
  7.1257027859335729 12.3420798779999998  3.3250001100000000
  9.9759838199290769 12.3420798779999998  3.3250001100000000
 11.4011244053335741 12.3420798779999998  3.3250001100000000
 14.2514054393290781 12.3420798779999998  3.3250001100000000
 15.6765460247335753 12.3420798779999998  3.3250001100000000
 18.5268270587290758 12.3420798779999998  3.3250001100000000
 19.9519676441335747 12.3420798779999998  3.3250001100000000
 22.8022486781290752 12.3420798779999998  3.3250001100000000
 24.2273892635335741 12.3420798779999998  3.3250001100000000
 27.0776702975290782 12.3420798779999998  3.3250001100000000
 28.5028108829335771 12.3420798779999998  3.3250001100000000
 31.3530919169290776 12.3420798779999998  3.3250001100000000
 32.7782325023335730 12.3420798779999998  3.3250001100000000
 35.6285135363290806 12.3420798779999998  3.3250001100000000
 37.0536541217335724 12.3420798779999998  3.3250001100000000
 39.9039351557290800 12.3420798779999998  3.3250001100000000
 41.3290757411335719 12.3420798779999998  3.3250001100000000
 44.1793567751290794 12.3420798779999998  3.3250001100000000
 45.6044973605335713 12.3420798779999998  3.3250001100000000
  0.7125702927022486 13.5762878657999995  3.3250001100000000
  3.5628515190917245 13.5762878657999995  3.3250001100000000
  4.9879919121022489 13.5762878657999995  3.3250001100000000
  7.8382731384917248 13.5762878657999995  3.3250001100000000
  9.2634135315022483 13.5762878657999995  3.3250001100000000
 12.1136947578917251 13.5762878657999995  3.3250001100000000
 13.5388351509022513 13.5762878657999995  3.3250001100000000
 16.3891163772917281 13.5762878657999995  3.3250001100000000
 17.8142567703022507 13.5762878657999995  3.3250001100000000
 20.6645379966917275 13.5762878657999995  3.3250001100000000
 22.0896783897022502 13.5762878657999995  3.3250001100000000
 24.9399596160917270 13.5762878657999995  3.3250001100000000
 26.3651000091022532 13.5762878657999995  3.3250001100000000
 29.2153812354917264 13.5762878657999995  3.3250001100000000
 30.6405216285022526 13.5762878657999995  3.3250001100000000
 33.4908028548917258 13.5762878657999995  3.3250001100000000
 34.9159432479022485 13.5762878657999995  3.3250001100000000
 37.7662244742917252 13.5762878657999995  3.3250001100000000
 39.1913648673022479 13.5762878657999995  3.3250001100000000
 42.0416460936917247 13.5762878657999995  3.3250001100000000
 43.4667864867022473 13.5762878657999995  3.3250001100000000
 46.3170677130917241 13.5762878657999995  3.3250001100000000
  1.4251405811290758 14.8104958536000009  3.3250001100000000
  2.8502811665335730 14.8104958536000009  3.3250001100000000
  5.7005622005290757 14.8104958536000009  3.3250001100000000
  7.1257027859335729 14.8104958536000009  3.3250001100000000
  9.9759838199290769 14.8104958536000009  3.3250001100000000
 11.4011244053335741 14.8104958536000009  3.3250001100000000
 14.2514054393290781 14.8104958536000009  3.3250001100000000
 15.6765460247335753 14.8104958536000009  3.3250001100000000
 18.5268270587290758 14.8104958536000009  3.3250001100000000
 19.9519676441335747 14.8104958536000009  3.3250001100000000
 22.8022486781290752 14.8104958536000009  3.3250001100000000
 24.2273892635335741 14.8104958536000009  3.3250001100000000
 27.0776702975290782 14.8104958536000009  3.3250001100000000
 28.5028108829335771 14.8104958536000009  3.3250001100000000
 31.3530919169290776 14.8104958536000009  3.3250001100000000
 32.7782325023335730 14.8104958536000009  3.3250001100000000
 35.6285135363290806 14.8104958536000009  3.3250001100000000
 37.0536541217335724 14.8104958536000009  3.3250001100000000
 39.9039351557290800 14.8104958536000009  3.3250001100000000
 41.3290757411335719 14.8104958536000009  3.3250001100000000
 44.1793567751290794 14.8104958536000009  3.3250001100000000
 45.6044973605335713 14.8104958536000009  3.3250001100000000
  0.7125702927022486 16.0447038414000005  3.3250001100000000
  3.5628515190917245 16.0447038414000005  3.3250001100000000
  4.9879919121022489 16.0447038414000005  3.3250001100000000
  7.8382731384917248 16.0447038414000005  3.3250001100000000
  9.2634135315022483 16.0447038414000005  3.3250001100000000
 12.1136947578917251 16.0447038414000005  3.3250001100000000
 13.5388351509022513 16.0447038414000005  3.3250001100000000
 16.3891163772917281 16.0447038414000005  3.3250001100000000
 17.8142567703022507 16.0447038414000005  3.3250001100000000
 20.6645379966917275 16.0447038414000005  3.3250001100000000
 22.0896783897022502 16.0447038414000005  3.3250001100000000
 24.9399596160917270 16.0447038414000005  3.3250001100000000
 26.3651000091022532 16.0447038414000005  3.3250001100000000
 29.2153812354917264 16.0447038414000005  3.3250001100000000
 30.6405216285022526 16.0447038414000005  3.3250001100000000
 33.4908028548917258 16.0447038414000005  3.3250001100000000
 34.9159432479022485 16.0447038414000005  3.3250001100000000
 37.7662244742917252 16.0447038414000005  3.3250001100000000
 39.1913648673022479 16.0447038414000005  3.3250001100000000
 42.0416460936917247 16.0447038414000005  3.3250001100000000
 43.4667864867022473 16.0447038414000005  3.3250001100000000
 46.3170677130917241 16.0447038414000005  3.3250001100000000
  1.4251405811290758 17.2789118292000019  3.3250001100000000
  2.8502811665335730 17.2789118292000019  3.3250001100000000
  5.7005622005290757 17.2789118292000019  3.3250001100000000
  7.1257027859335729 17.2789118292000019  3.3250001100000000
  9.9759838199290769 17.2789118292000019  3.3250001100000000
 11.4011244053335741 17.2789118292000019  3.3250001100000000
 14.2514054393290781 17.2789118292000019  3.3250001100000000
 15.6765460247335753 17.2789118292000019  3.3250001100000000
 18.5268270587290758 17.2789118292000019  3.3250001100000000
 19.9519676441335747 17.2789118292000019  3.3250001100000000
 22.8022486781290752 17.2789118292000019  3.3250001100000000
 24.2273892635335741 17.2789118292000019  3.3250001100000000
 27.0776702975290782 17.2789118292000019  3.3250001100000000
 28.5028108829335771 17.2789118292000019  3.3250001100000000
 31.3530919169290776 17.2789118292000019  3.3250001100000000
 32.7782325023335730 17.2789118292000019  3.3250001100000000
 35.6285135363290806 17.2789118292000019  3.3250001100000000
 37.0536541217335724 17.2789118292000019  3.3250001100000000
 39.9039351557290800 17.2789118292000019  3.3250001100000000
 41.3290757411335719 17.2789118292000019  3.3250001100000000
 44.1793567751290794 17.2789118292000019  3.3250001100000000
 45.6044973605335713 17.2789118292000019  3.3250001100000000
  0.7125702927022486 18.5131198170000033  3.3250001100000000
  3.5628515190917245 18.5131198170000033  3.3250001100000000
  4.9879919121022489 18.5131198170000033  3.3250001100000000
  7.8382731384917248 18.5131198170000033  3.3250001100000000
  9.2634135315022483 18.5131198170000033  3.3250001100000000
 12.1136947578917251 18.5131198170000033  3.3250001100000000
 13.5388351509022513 18.5131198170000033  3.3250001100000000
 16.3891163772917281 18.5131198170000033  3.3250001100000000
 17.8142567703022507 18.5131198170000033  3.3250001100000000
 20.6645379966917275 18.5131198170000033  3.3250001100000000
 22.0896783897022502 18.5131198170000033  3.3250001100000000
 24.9399596160917270 18.5131198170000033  3.3250001100000000
 26.3651000091022532 18.5131198170000033  3.3250001100000000
 29.2153812354917264 18.5131198170000033  3.3250001100000000
 30.6405216285022526 18.5131198170000033  3.3250001100000000
 33.4908028548917258 18.5131198170000033  3.3250001100000000
 34.9159432479022485 18.5131198170000033  3.3250001100000000
 37.7662244742917252 18.5131198170000033  3.3250001100000000
 39.1913648673022479 18.5131198170000033  3.3250001100000000
 42.0416460936917247 18.5131198170000033  3.3250001100000000
 43.4667864867022473 18.5131198170000033  3.3250001100000000
 46.3170677130917241 18.5131198170000033  3.3250001100000000
  1.4251405811290758 19.7473278048000012  3.3250001100000000
  2.8502811665335730 19.7473278048000012  3.3250001100000000
  5.7005622005290757 19.7473278048000012  3.3250001100000000
  7.1257027859335729 19.7473278048000012  3.3250001100000000
  9.9759838199290769 19.7473278048000012  3.3250001100000000
 11.4011244053335741 19.7473278048000012  3.3250001100000000
 14.2514054393290781 19.7473278048000012  3.3250001100000000
 15.6765460247335753 19.7473278048000012  3.3250001100000000
 18.5268270587290758 19.7473278048000012  3.3250001100000000
 19.9519676441335747 19.7473278048000012  3.3250001100000000
 22.8022486781290752 19.7473278048000012  3.3250001100000000
 24.2273892635335741 19.7473278048000012  3.3250001100000000
 27.0776702975290782 19.7473278048000012  3.3250001100000000
 28.5028108829335771 19.7473278048000012  3.3250001100000000
 31.3530919169290776 19.7473278048000012  3.3250001100000000
 32.7782325023335730 19.7473278048000012  3.3250001100000000
 35.6285135363290806 19.7473278048000012  3.3250001100000000
 37.0536541217335724 19.7473278048000012  3.3250001100000000
 39.9039351557290800 19.7473278048000012  3.3250001100000000
 41.3290757411335719 19.7473278048000012  3.3250001100000000
 44.1793567751290794 19.7473278048000012  3.3250001100000000
 45.6044973605335713 19.7473278048000012  3.3250001100000000
  0.7125702927022486 20.9815357926000026  3.3250001100000000
  3.5628515190917245 20.9815357926000026  3.3250001100000000
  4.9879919121022489 20.9815357926000026  3.3250001100000000
  7.8382731384917248 20.9815357926000026  3.3250001100000000
  9.2634135315022483 20.9815357926000026  3.3250001100000000
 12.1136947578917251 20.9815357926000026  3.3250001100000000
 13.5388351509022513 20.9815357926000026  3.3250001100000000
 16.3891163772917281 20.9815357926000026  3.3250001100000000
 17.8142567703022507 20.9815357926000026  3.3250001100000000
 20.6645379966917275 20.9815357926000026  3.3250001100000000
 22.0896783897022502 20.9815357926000026  3.3250001100000000
 24.9399596160917270 20.9815357926000026  3.3250001100000000
 26.3651000091022532 20.9815357926000026  3.3250001100000000
 29.2153812354917264 20.9815357926000026  3.3250001100000000
 30.6405216285022526 20.9815357926000026  3.3250001100000000
 33.4908028548917258 20.9815357926000026  3.3250001100000000
 34.9159432479022485 20.9815357926000026  3.3250001100000000
 37.7662244742917252 20.9815357926000026  3.3250001100000000
 39.1913648673022479 20.9815357926000026  3.3250001100000000
 42.0416460936917247 20.9815357926000026  3.3250001100000000
 43.4667864867022473 20.9815357926000026  3.3250001100000000
 46.3170677130917241 20.9815357926000026  3.3250001100000000
  1.4251405811290758 22.2157437804000004  3.3250001100000000
  2.8502811665335730 22.2157437804000004  3.3250001100000000
  5.7005622005290757 22.2157437804000004  3.3250001100000000
  7.1257027859335729 22.2157437804000004  3.3250001100000000
  9.9759838199290769 22.2157437804000004  3.3250001100000000
 11.4011244053335741 22.2157437804000004  3.3250001100000000
 14.2514054393290781 22.2157437804000004  3.3250001100000000
 15.6765460247335753 22.2157437804000004  3.3250001100000000
 18.5268270587290758 22.2157437804000004  3.3250001100000000
 19.9519676441335747 22.2157437804000004  3.3250001100000000
 22.8022486781290752 22.2157437804000004  3.3250001100000000
 24.2273892635335741 22.2157437804000004  3.3250001100000000
 27.0776702975290782 22.2157437804000004  3.3250001100000000
 28.5028108829335771 22.2157437804000004  3.3250001100000000
 31.3530919169290776 22.2157437804000004  3.3250001100000000
 32.7782325023335730 22.2157437804000004  3.3250001100000000
 35.6285135363290806 22.2157437804000004  3.3250001100000000
 37.0536541217335724 22.2157437804000004  3.3250001100000000
 39.9039351557290800 22.2157437804000004  3.3250001100000000
 41.3290757411335719 22.2157437804000004  3.3250001100000000
 44.1793567751290794 22.2157437804000004  3.3250001100000000
 45.6044973605335713 22.2157437804000004  3.3250001100000000
  0.7125702927022486 23.4499517682000018  3.3250001100000000
  3.5628515190917245 23.4499517682000018  3.3250001100000000
  4.9879919121022489 23.4499517682000018  3.3250001100000000
  7.8382731384917248 23.4499517682000018  3.3250001100000000
  9.2634135315022483 23.4499517682000018  3.3250001100000000
 12.1136947578917251 23.4499517682000018  3.3250001100000000
 13.5388351509022513 23.4499517682000018  3.3250001100000000
 16.3891163772917281 23.4499517682000018  3.3250001100000000
 17.8142567703022507 23.4499517682000018  3.3250001100000000
 20.6645379966917275 23.4499517682000018  3.3250001100000000
 22.0896783897022502 23.4499517682000018  3.3250001100000000
 24.9399596160917270 23.4499517682000018  3.3250001100000000
 26.3651000091022532 23.4499517682000018  3.3250001100000000
 29.2153812354917264 23.4499517682000018  3.3250001100000000
 30.6405216285022526 23.4499517682000018  3.3250001100000000
 33.4908028548917258 23.4499517682000018  3.3250001100000000
 34.9159432479022485 23.4499517682000018  3.3250001100000000
 37.7662244742917252 23.4499517682000018  3.3250001100000000
 39.1913648673022479 23.4499517682000018  3.3250001100000000
 42.0416460936917247 23.4499517682000018  3.3250001100000000
 43.4667864867022473 23.4499517682000018  3.3250001100000000
 46.3170677130917241 23.4499517682000018  3.3250001100000000
  1.4251405811290758 24.6841597559999997  3.3250001100000000
  2.8502811665335730 24.6841597559999997  3.3250001100000000
  5.7005622005290757 24.6841597559999997  3.3250001100000000
  7.1257027859335729 24.6841597559999997  3.3250001100000000
  9.9759838199290769 24.6841597559999997  3.3250001100000000
 11.4011244053335741 24.6841597559999997  3.3250001100000000
 14.2514054393290781 24.6841597559999997  3.3250001100000000
 15.6765460247335753 24.6841597559999997  3.3250001100000000
 18.5268270587290758 24.6841597559999997  3.3250001100000000
 19.9519676441335747 24.6841597559999997  3.3250001100000000
 22.8022486781290752 24.6841597559999997  3.3250001100000000
 24.2273892635335741 24.6841597559999997  3.3250001100000000
 27.0776702975290782 24.6841597559999997  3.3250001100000000
 28.5028108829335771 24.6841597559999997  3.3250001100000000
 31.3530919169290776 24.6841597559999997  3.3250001100000000
 32.7782325023335730 24.6841597559999997  3.3250001100000000
 35.6285135363290806 24.6841597559999997  3.3250001100000000
 37.0536541217335724 24.6841597559999997  3.3250001100000000
 39.9039351557290800 24.6841597559999997  3.3250001100000000
 41.3290757411335719 24.6841597559999997  3.3250001100000000
 44.1793567751290794 24.6841597559999997  3.3250001100000000
 45.6044973605335713 24.6841597559999997  3.3250001100000000
  0.7125702927022486 25.9183677438000011  3.3250001100000000
  3.5628515190917245 25.9183677438000011  3.3250001100000000
  4.9879919121022489 25.9183677438000011  3.3250001100000000
  7.8382731384917248 25.9183677438000011  3.3250001100000000
  9.2634135315022483 25.9183677438000011  3.3250001100000000
 12.1136947578917251 25.9183677438000011  3.3250001100000000
 13.5388351509022513 25.9183677438000011  3.3250001100000000
 16.3891163772917281 25.9183677438000011  3.3250001100000000
 17.8142567703022507 25.9183677438000011  3.3250001100000000
 20.6645379966917275 25.9183677438000011  3.3250001100000000
 22.0896783897022502 25.9183677438000011  3.3250001100000000
 24.9399596160917270 25.9183677438000011  3.3250001100000000
 26.3651000091022532 25.9183677438000011  3.3250001100000000
 29.2153812354917264 25.9183677438000011  3.3250001100000000
 30.6405216285022526 25.9183677438000011  3.3250001100000000
 33.4908028548917258 25.9183677438000011  3.3250001100000000
 34.9159432479022485 25.9183677438000011  3.3250001100000000
 37.7662244742917252 25.9183677438000011  3.3250001100000000
 39.1913648673022479 25.9183677438000011  3.3250001100000000
 42.0416460936917247 25.9183677438000011  3.3250001100000000
 43.4667864867022473 25.9183677438000011  3.3250001100000000
 46.3170677130917241 25.9183677438000011  3.3250001100000000
  0.0000000000000000  0.0000000000000000  6.6750001900000004
  1.4251405811290758  0.0000000000000000  6.6750001900000004
  4.2754216194000003  0.0000000000000000  6.6750001900000004