Graphene
1.0
      149.6397552490         0.0000000000         0.0000000000
        0.0000000000         2.4684159756         0.0000000000
        0.0000000000         0.0000000000        10.0000000000
    C
  280
Cartesian
     0.712570290         1.234207988         3.325000107
     4.987992102         1.234207988         3.325000107
     9.263413425         1.234207988         3.325000107
    13.538835307         1.234207988         3.325000107
    17.814256630         1.234207988         3.325000107
    22.089679069         1.234207988         3.325000107
    26.365100393         1.234207988         3.325000107
    30.640521716         1.234207988         3.325000107
    34.915943040         1.234207988         3.325000107
    39.191366594         1.234207988         3.325000107
    43.466787917         1.234207988         3.325000107
    47.742209241         1.234207988         3.325000107
    52.017630565         1.234207988         3.325000107
    56.293051888         1.234207988         3.325000107
    60.568473212         1.234207988         3.325000107
    64.843894536         1.234207988         3.325000107
    69.119315860         1.234207988         3.325000107
    73.394737183         1.234207988         3.325000107
    77.670158507         1.234207988         3.325000107
    81.945579831         1.234207988         3.325000107
    86.221001154         1.234207988         3.325000107
    90.496422478         1.234207988         3.325000107
    94.771843802         1.234207988         3.325000107
    99.047265126         1.234207988         3.325000107
   103.322686449         1.234207988         3.325000107
   107.598107773         1.234207988         3.325000107
   111.873529097         1.234207988         3.325000107
   116.148950420         1.234207988         3.325000107
   120.424371744         1.234207988         3.325000107
   124.699793068         1.234207988         3.325000107
   128.975214391         1.234207988         3.325000107
   133.250635715         1.234207988         3.325000107
   137.526057039         1.234207988         3.325000107
   141.801478363         1.234207988         3.325000107
   146.076899686         1.234207988         3.325000107
     2.850281161         0.000000000         3.325000107
     7.125702764         0.000000000         3.325000107
    11.401124645         0.000000000         3.325000107
    15.676545969         0.000000000         3.325000107
    19.951968407         0.000000000         3.325000107
    24.227389731         0.000000000         3.325000107
    28.502811055         0.000000000         3.325000107
    32.778232378         0.000000000         3.325000107
    37.053653702         0.000000000         3.325000107
    41.329077255         0.000000000         3.325000107
    45.604498579         0.000000000         3.325000107
    49.879919903         0.000000000         3.325000107
    54.155341227         0.000000000         3.325000107
    58.430762550         0.000000000         3.325000107
    62.706183874         0.000000000         3.325000107
    66.981605198         0.000000000         3.325000107
    71.257026521         0.000000000         3.325000107
    75.532452305         0.000000000         3.325000107
    79.807873628         0.000000000         3.325000107
    84.083294952         0.000000000         3.325000107
    88.358716276         0.000000000         3.325000107
    92.634137600         0.000000000         3.325000107
    96.909558923         0.000000000         3.325000107
   101.184980247         0.000000000         3.325000107
   105.460401571         0.000000000         3.325000107
   109.735822894         0.000000000         3.325000107
   114.011244218         0.000000000         3.325000107
   118.286665542         0.000000000         3.325000107
   122.562086866         0.000000000         3.325000107
   126.837508189         0.000000000         3.325000107
   131.112929513         0.000000000         3.325000107
   135.388350837         0.000000000         3.325000107
   139.663772160         0.000000000         3.325000107
   143.939193484         0.000000000         3.325000107
   148.214614808         0.000000000         3.325000107
     1.425140581         0.000000000         3.325000107
     5.700562322         0.000000000         3.325000107
     9.975984204         0.000000000         3.325000107
    14.251405527         0.000000000         3.325000107
    18.526826851         0.000000000         3.325000107
    22.802249290         0.000000000         3.325000107
    27.077670613         0.000000000         3.325000107
    31.353091937         0.000000000         3.325000107
    35.628513261         0.000000000         3.325000107
    39.903936814         0.000000000         3.325000107
    44.179358138         0.000000000         3.325000107
    48.454779462         0.000000000         3.325000107
    52.730200785         0.000000000         3.325000107
    57.005622109         0.000000000         3.325000107
    61.281043433         0.000000000         3.325000107
    65.556464756         0.000000000         3.325000107
    69.831886080         0.000000000         3.325000107
    74.107307404         0.000000000         3.325000107
    78.382733187         0.000000000         3.325000107
    82.658154511         0.000000000         3.325000107
    86.933575835         0.000000000         3.325000107
    91.208997158         0.000000000         3.325000107
    95.484418482         0.000000000         3.325000107
    99.759839806         0.000000000         3.325000107
   104.035261129         0.000000000         3.325000107
   108.310682453         0.000000000         3.325000107
   112.586103777         0.000000000         3.325000107
   116.861525101         0.000000000         3.325000107
   121.136946424         0.000000000         3.325000107
   125.412367748         0.000000000         3.325000107
   129.687789072         0.000000000         3.325000107
   133.963210395         0.000000000         3.325000107
   138.238631719         0.000000000         3.325000107
   142.514053043         0.000000000         3.325000107
   146.789474367         0.000000000         3.325000107
     3.562851382         1.234207988         3.325000107
     7.838272984         1.234207988         3.325000107
    12.113694865         1.234207988         3.325000107
    16.389116189         1.234207988         3.325000107
    20.664538628         1.234207988         3.325000107
    24.939959951         1.234207988         3.325000107
    29.215381275         1.234207988         3.325000107
    33.490802599         1.234207988         3.325000107
    37.766226152         1.234207988         3.325000107
    42.041647476         1.234207988         3.325000107
    46.317068800         1.234207988         3.325000107
    50.592490123         1.234207988         3.325000107
    54.867911447         1.234207988         3.325000107
    59.143332771         1.234207988         3.325000107
    63.418754095         1.234207988         3.325000107
    67.694175418         1.234207988         3.325000107
    71.969596742         1.234207988         3.325000107
    76.245018066         1.234207988         3.325000107
    80.520439389         1.234207988         3.325000107
    84.795860713         1.234207988         3.325000107
    89.071282037         1.234207988         3.325000107
    93.346703361         1.234207988         3.325000107
    97.622124684         1.234207988         3.325000107
   101.897546008         1.234207988         3.325000107
   106.172967332         1.234207988         3.325000107
   110.448388655         1.234207988         3.325000107
   114.723809979         1.234207988         3.325000107
   118.999231303         1.234207988         3.325000107
   123.274652627         1.234207988         3.325000107
   127.550073950         1.234207988         3.325000107
   131.825495274         1.234207988         3.325000107
   136.100916598         1.234207988         3.325000107
   140.376337921         1.234207988         3.325000107
   144.651759245         1.234207988         3.325000107
   148.927189488         1.234207988         3.325000107
     1.425140581         0.000000000         6.675000191
     5.700562322         0.000000000         6.675000191
     9.975984204         0.000000000         6.675000191
    14.251405527         0.000000000         6.675000191
    18.526826851         0.000000000         6.675000191
    22.802249290         0.000000000         6.675000191
    27.077670613         0.000000000         6.675000191
    31.353091937         0.000000000         6.675000191
    35.628513261         0.000000000         6.675000191
    39.903936814         0.000000000         6.675000191
    44.179358138         0.000000000         6.675000191
    48.454779462         0.000000000         6.675000191
    52.730200785         0.000000000         6.675000191
    57.005622109         0.000000000         6.675000191
    61.281043433         0.000000000         6.675000191
    65.556464756         0.000000000         6.675000191
    69.831886080         0.000000000         6.675000191
    74.107307404         0.000000000         6.675000191
    78.382733187         0.000000000         6.675000191
    82.658154511         0.000000000         6.675000191
    86.933575835         0.000000000         6.675000191
    91.208997158         0.000000000         6.675000191
    95.484418482         0.000000000         6.675000191
    99.759839806         0.000000000         6.675000191
   104.035261129         0.000000000         6.675000191
   108.310682453         0.000000000         6.675000191
   112.586103777         0.000000000         6.675000191
   116.861525101         0.000000000         6.675000191
   121.136946424         0.000000000         6.675000191
   125.412367748         0.000000000         6.675000191
   129.687789072         0.000000000         6.675000191
   133.963210395         0.000000000         6.675000191
   138.238631719         0.000000000         6.675000191
   142.514053043         0.000000000         6.675000191
   146.789474367         0.000000000         6.675000191
     3.562851382         1.234207988         6.675000191
     7.838272984         1.234207988         6.675000191
    12.113694865         1.234207988         6.675000191
    16.389116189         1.234207988         6.675000191
    20.664538628         1.234207988         6.675000191
    24.939959951         1.234207988         6.675000191
    29.215381275         1.234207988         6.675000191
    33.490802599         1.234207988         6.675000191
    37.766226152         1.234207988         6.675000191
    42.041647476         1.234207988         6.675000191
    46.317068800         1.234207988         6.675000191
    50.592490123         1.234207988         6.675000191
    54.867911447         1.234207988         6.675000191
    59.143332771         1.234207988         6.675000191
    63.418754095         1.234207988         6.675000191
    67.694175418         1.234207988         6.675000191
    71.969596742         1.234207988         6.675000191
    76.245018066         1.234207988         6.675000191
    80.520439389         1.234207988         6.675000191
    84.795860713         1.234207988         6.675000191
    89.071282037         1.234207988         6.675000191
    93.346703361         1.234207988         6.675000191
    97.622124684         1.234207988         6.675000191
   101.897546008         1.234207988         6.675000191
   106.172967332         1.234207988         6.675000191
   110.448388655         1.234207988         6.675000191
   114.723809979         1.234207988         6.675000191
   118.999231303         1.234207988         6.675000191
   123.274652627         1.234207988         6.675000191
   127.550073950         1.234207988         6.675000191
   131.825495274         1.234207988         6.675000191
   136.100916598         1.234207988         6.675000191
   140.376337921         1.234207988         6.675000191
   144.651759245         1.234207988         6.675000191
   148.927189488         1.234207988         6.675000191
     2.137710801         1.234207988         6.675000191
     6.413132543         1.234207988         6.675000191
    10.688554424         1.234207988         6.675000191
    14.963975748         1.234207988         6.675000191
    19.239398186         1.234207988         6.675000191
    23.514819510         1.234207988         6.675000191
    27.790240834         1.234207988         6.675000191
    32.065662158         1.234207988         6.675000191
    36.341083481         1.234207988         6.675000191
    40.616507035         1.234207988         6.675000191
    44.891928359         1.234207988         6.675000191
    49.167349682         1.234207988         6.675000191
    53.442771006         1.234207988         6.675000191
    57.718192330         1.234207988         6.675000191
    61.993613653         1.234207988         6.675000191
    66.269034977         1.234207988         6.675000191
    70.544456301         1.234207988         6.675000191
    74.819877625         1.234207988         6.675000191
    79.095298948         1.234207988         6.675000191
    83.370720272         1.234207988         6.675000191
    87.646141596         1.234207988         6.675000191
    91.921562919         1.234207988         6.675000191
    96.196984243         1.234207988         6.675000191
   100.472405567         1.234207988         6.675000191
   104.747826890         1.234207988         6.675000191
   109.023248214         1.234207988         6.675000191
   113.298669538         1.234207988         6.675000191
   117.574090862         1.234207988         6.675000191
   121.849512185         1.234207988         6.675000191
   126.124933509         1.234207988         6.675000191
   130.400354833         1.234207988         6.675000191
   134.675776156         1.234207988         6.675000191
   138.951197480         1.234207988         6.675000191
   143.226618804         1.234207988         6.675000191
   147.502040128         1.234207988         6.675000191
     0.000000000         0.000000000         6.675000191
     4.275421602         0.000000000         6.675000191
     8.550843205         0.000000000         6.675000191
    12.826265086         0.000000000         6.675000191
    17.101686410         0.000000000         6.675000191
    21.377108848         0.000000000         6.675000191
    25.652530172         0.000000000         6.675000191
    29.927951496         0.000000000         6.675000191
    34.203372819         0.000000000         6.675000191
    38.478796373         0.000000000         6.675000191
    42.754217697         0.000000000         6.675000191
    47.029639020         0.000000000         6.675000191
    51.305060344         0.000000000         6.675000191
    55.580481668         0.000000000         6.675000191
    59.855902992         0.000000000         6.675000191
    64.131324315         0.000000000         6.675000191
    68.406745639         0.000000000         6.675000191
    72.682166963         0.000000000         6.675000191
    76.957592746         0.000000000         6.675000191
    81.233014070         0.000000000         6.675000191
    85.508435393         0.000000000         6.675000191
    89.783856717         0.000000000         6.675000191
    94.059278041         0.000000000         6.675000191
    98.334699365         0.000000000         6.675000191
   102.610120688         0.000000000         6.675000191
   106.885542012         0.000000000         6.675000191
   111.160963336         0.000000000         6.675000191
   115.436384659         0.000000000         6.675000191
   119.711805983         0.000000000         6.675000191
   123.987227307         0.000000000         6.675000191
   128.262648630         0.000000000         6.675000191
   132.538069954         0.000000000         6.675000191
   136.813491278         0.000000000         6.675000191
   141.088912602         0.000000000         6.675000191
   145.364333925         0.000000000         6.675000191
