POSCAR for slab defined by SURFACE card and Nslab and Vacuum_thickness_in_Angstrom in wt.in by WannierTools
1.0
  196.800003    0.000000    0.000000
   -1.230000    2.130422    0.000000
    0.000000    0.000000  110.583544
C     
  1600
Cartesian
    0.000065    1.420282   14.791772        C
    0.000065    1.420282   24.791772        C
    0.000065    1.420282   34.791772        C
    0.000065    1.420282   44.791772        C
    0.000065    1.420282   54.791772        C
    0.000065    1.420282   64.791772        C
    0.000065    1.420282   74.791772        C
    0.000065    1.420282   84.791772        C
    0.000065    1.420282   94.791772        C
    0.000065    1.420282  104.791772        C
   98.400067    1.420282   14.791772        C
   98.400067    1.420282   24.791772        C
   98.400067    1.420282   34.791772        C
   98.400067    1.420282   44.791772        C
   98.400067    1.420282   54.791772        C
   98.400067    1.420282   64.791772        C
   98.400067    1.420282   74.791772        C
   98.400067    1.420282   84.791772        C
   98.400067    1.420282   94.791772        C
   98.400067    1.420282  104.791772        C
    2.460065    1.420282   14.791772        C
    2.460065    1.420282   24.791772        C
    2.460065    1.420282   34.791772        C
    2.460065    1.420282   44.791772        C
    2.460065    1.420282   54.791772        C
    2.460065    1.420282   64.791772        C
    2.460065    1.420282   74.791772        C
    2.460065    1.420282   84.791772        C
    2.460065    1.420282   94.791772        C
    2.460065    1.420282  104.791772        C
  100.860067    1.420282   14.791772        C
  100.860067    1.420282   24.791772        C
  100.860067    1.420282   34.791772        C
  100.860067    1.420282   44.791772        C
  100.860067    1.420282   54.791772        C
  100.860067    1.420282   64.791772        C
  100.860067    1.420282   74.791772        C
  100.860067    1.420282   84.791772        C
  100.860067    1.420282   94.791772        C
  100.860067    1.420282  104.791772        C
    4.920065    1.420282   14.791772        C
    4.920065    1.420282   24.791772        C
    4.920065    1.420282   34.791772        C
    4.920065    1.420282   44.791772        C
    4.920065    1.420282   54.791772        C
    4.920065    1.420282   64.791772        C
    4.920065    1.420282   74.791772        C
    4.920065    1.420282   84.791772        C
    4.920065    1.420282   94.791772        C
    4.920065    1.420282  104.791772        C
  103.320067    1.420282   14.791772        C
  103.320067    1.420282   24.791772        C
  103.320067    1.420282   34.791772        C
  103.320067    1.420282   44.791772        C
  103.320067    1.420282   54.791772        C
  103.320067    1.420282   64.791772        C
  103.320067    1.420282   74.791772        C
  103.320067    1.420282   84.791772        C
  103.320067    1.420282   94.791772        C
  103.320067    1.420282  104.791772        C
    7.380065    1.420282   14.791772        C
    7.380065    1.420282   24.791772        C
    7.380065    1.420282   34.791772        C
    7.380065    1.420282   44.791772        C
    7.380065    1.420282   54.791772        C
    7.380065    1.420282   64.791772        C
    7.380065    1.420282   74.791772        C
    7.380065    1.420282   84.791772        C
    7.380065    1.420282   94.791772        C
    7.380065    1.420282  104.791772        C
  105.780067    1.420282   14.791772        C
  105.780067    1.420282   24.791772        C
  105.780067    1.420282   34.791772        C
  105.780067    1.420282   44.791772        C
  105.780067    1.420282   54.791772        C
  105.780067    1.420282   64.791772        C
  105.780067    1.420282   74.791772        C
  105.780067    1.420282   84.791772        C
  105.780067    1.420282   94.791772        C
  105.780067    1.420282  104.791772        C
    9.840065    1.420282   14.791772        C
    9.840065    1.420282   24.791772        C
    9.840065    1.420282   34.791772        C
    9.840065    1.420282   44.791772        C
    9.840065    1.420282   54.791772        C
    9.840065    1.420282   64.791772        C
    9.840065    1.420282   74.791772        C
    9.840065    1.420282   84.791772        C
    9.840065    1.420282   94.791772        C
    9.840065    1.420282  104.791772        C
  108.240067    1.420282   14.791772        C
  108.240067    1.420282   24.791772        C
  108.240067    1.420282   34.791772        C
  108.240067    1.420282   44.791772        C
  108.240067    1.420282   54.791772        C
  108.240067    1.420282   64.791772        C
  108.240067    1.420282   74.791772        C
  108.240067    1.420282   84.791772        C
  108.240067    1.420282   94.791772        C
  108.240067    1.420282  104.791772        C
   12.300065    1.420282   14.791772        C
   12.300065    1.420282   24.791772        C
   12.300065    1.420282   34.791772        C
   12.300065    1.420282   44.791772        C
   12.300065    1.420282   54.791772        C
   12.300065    1.420282   64.791772        C
   12.300065    1.420282   74.791772        C
   12.300065    1.420282   84.791772        C
   12.300065    1.420282   94.791772        C
   12.300065    1.420282  104.791772        C
  110.700067    1.420282   14.791772        C
  110.700067    1.420282   24.791772        C
  110.700067    1.420282   34.791772        C
  110.700067    1.420282   44.791772        C
  110.700067    1.420282   54.791772        C
  110.700067    1.420282   64.791772        C
  110.700067    1.420282   74.791772        C
  110.700067    1.420282   84.791772        C
  110.700067    1.420282   94.791772        C
  110.700067    1.420282  104.791772        C
   14.760065    1.420282   14.791772        C
   14.760065    1.420282   24.791772        C
   14.760065    1.420282   34.791772        C
   14.760065    1.420282   44.791772        C
   14.760065    1.420282   54.791772        C
   14.760065    1.420282   64.791772        C
   14.760065    1.420282   74.791772        C
   14.760065    1.420282   84.791772        C
   14.760065    1.420282   94.791772        C
   14.760065    1.420282  104.791772        C
  113.160067    1.420282   14.791772        C
  113.160067    1.420282   24.791772        C
  113.160067    1.420282   34.791772        C
  113.160067    1.420282   44.791772        C
  113.160067    1.420282   54.791772        C
  113.160067    1.420282   64.791772        C
  113.160067    1.420282   74.791772        C
  113.160067    1.420282   84.791772        C
  113.160067    1.420282   94.791772        C
  113.160067    1.420282  104.791772        C
   17.220065    1.420282   14.791772        C
   17.220065    1.420282   24.791772        C
   17.220065    1.420282   34.791772        C
   17.220065    1.420282   44.791772        C
   17.220065    1.420282   54.791772        C
   17.220065    1.420282   64.791772        C
   17.220065    1.420282   74.791772        C
   17.220065    1.420282   84.791772        C
   17.220065    1.420282   94.791772        C
   17.220065    1.420282  104.791772        C
  115.620067    1.420282   14.791772        C
  115.620067    1.420282   24.791772        C
  115.620067    1.420282   34.791772        C
  115.620067    1.420282   44.791772        C
  115.620067    1.420282   54.791772        C
  115.620067    1.420282   64.791772        C
  115.620067    1.420282   74.791772        C
  115.620067    1.420282   84.791772        C
  115.620067    1.420282   94.791772        C
  115.620067    1.420282  104.791772        C
   19.680066    1.420282   14.791772        C
   19.680066    1.420282   24.791772        C
   19.680066    1.420282   34.791772        C
   19.680066    1.420282   44.791772        C
   19.680066    1.420282   54.791772        C
   19.680066    1.420282   64.791772        C
   19.680066    1.420282   74.791772        C
   19.680066    1.420282   84.791772        C
   19.680066    1.420282   94.791772        C
   19.680066    1.420282  104.791772        C
  118.080067    1.420282   14.791772        C
  118.080067    1.420282   24.791772        C
  118.080067    1.420282   34.791772        C
  118.080067    1.420282   44.791772        C
  118.080067    1.420282   54.791772        C
  118.080067    1.420282   64.791772        C
  118.080067    1.420282   74.791772        C
  118.080067    1.420282   84.791772        C
  118.080067    1.420282   94.791772        C
  118.080067    1.420282  104.791772        C
   22.140066    1.420282   14.791772        C
   22.140066    1.420282   24.791772        C
   22.140066    1.420282   34.791772        C
   22.140066    1.420282   44.791772        C
   22.140066    1.420282   54.791772        C
   22.140066    1.420282   64.791772        C
   22.140066    1.420282   74.791772        C
   22.140066    1.420282   84.791772        C
   22.140066    1.420282   94.791772        C
   22.140066    1.420282  104.791772        C
  120.540067    1.420282   14.791772        C
  120.540067    1.420282   24.791772        C
  120.540067    1.420282   34.791772        C
  120.540067    1.420282   44.791772        C
  120.540067    1.420282   54.791772        C
  120.540067    1.420282   64.791772        C
  120.540067    1.420282   74.791772        C
  120.540067    1.420282   84.791772        C
  120.540067    1.420282   94.791772        C
  120.540067    1.420282  104.791772        C
   24.600066    1.420282   14.791772        C
   24.600066    1.420282   24.791772        C
   24.600066    1.420282   34.791772        C
   24.600066    1.420282   44.791772        C
   24.600066    1.420282   54.791772        C
   24.600066    1.420282   64.791772        C
   24.600066    1.420282   74.791772        C
   24.600066    1.420282   84.791772        C
   24.600066    1.420282   94.791772        C
   24.600066    1.420282  104.791772        C
  123.000067    1.420282   14.791772        C
  123.000067    1.420282   24.791772        C
  123.000067    1.420282   34.791772        C
  123.000067    1.420282   44.791772        C
  123.000067    1.420282   54.791772        C
  123.000067    1.420282   64.791772        C
  123.000067    1.420282   74.791772        C
  123.000067    1.420282   84.791772        C
  123.000067    1.420282   94.791772        C
  123.000067    1.420282  104.791772        C
   27.060066    1.420282   14.791772        C
   27.060066    1.420282   24.791772        C
   27.060066    1.420282   34.791772        C
   27.060066    1.420282   44.791772        C
   27.060066    1.420282   54.791772        C
   27.060066    1.420282   64.791772        C
   27.060066    1.420282   74.791772        C
   27.060066    1.420282   84.791772        C
   27.060066    1.420282   94.791772        C
   27.060066    1.420282  104.791772        C
  125.460067    1.420282   14.791772        C
  125.460067    1.420282   24.791772        C
  125.460067    1.420282   34.791772        C
  125.460067    1.420282   44.791772        C
  125.460067    1.420282   54.791772        C
  125.460067    1.420282   64.791772        C
  125.460067    1.420282   74.791772        C
  125.460067    1.420282   84.791772        C
  125.460067    1.420282   94.791772        C
  125.460067    1.420282  104.791772        C
   29.520066    1.420282   14.791772        C
   29.520066    1.420282   24.791772        C
   29.520066    1.420282   34.791772        C
   29.520066    1.420282   44.791772        C
   29.520066    1.420282   54.791772        C
   29.520066    1.420282   64.791772        C
   29.520066    1.420282   74.791772        C
   29.520066    1.420282   84.791772        C
   29.520066    1.420282   94.791772        C
   29.520066    1.420282  104.791772        C
  127.920067    1.420282   14.791772        C
  127.920067    1.420282   24.791772        C
  127.920067    1.420282   34.791772        C
  127.920067    1.420282   44.791772        C
  127.920067    1.420282   54.791772        C
  127.920067    1.420282   64.791772        C
  127.920067    1.420282   74.791772        C
  127.920067    1.420282   84.791772        C
  127.920067    1.420282   94.791772        C
  127.920067    1.420282  104.791772        C
   31.980066    1.420282   14.791772        C
   31.980066    1.420282   24.791772        C
   31.980066    1.420282   34.791772        C
   31.980066    1.420282   44.791772        C
   31.980066    1.420282   54.791772        C
   31.980066    1.420282   64.791772        C
   31.980066    1.420282   74.791772        C
   31.980066    1.420282   84.791772        C
   31.980066    1.420282   94.791772        C
   31.980066    1.420282  104.791772        C
  130.380067    1.420282   14.791772        C
  130.380067    1.420282   24.791772        C
  130.380067    1.420282   34.791772        C
  130.380067    1.420282   44.791772        C
  130.380067    1.420282   54.791772        C
  130.380067    1.420282   64.791772        C
  130.380067    1.420282   74.791772        C
  130.380067    1.420282   84.791772        C
  130.380067    1.420282   94.791772        C
  130.380067    1.420282  104.791772        C
   34.440066    1.420282   14.791772        C
   34.440066    1.420282   24.791772        C
   34.440066    1.420282   34.791772        C
   34.440066    1.420282   44.791772        C
   34.440066    1.420282   54.791772        C
   34.440066    1.420282   64.791772        C
   34.440066    1.420282   74.791772        C
   34.440066    1.420282   84.791772        C
   34.440066    1.420282   94.791772        C
   34.440066    1.420282  104.791772        C
  132.840067    1.420282   14.791772        C
  132.840067    1.420282   24.791772        C
  132.840067    1.420282   34.791772        C
  132.840067    1.420282   44.791772        C
  132.840067    1.420282   54.791772        C
  132.840067    1.420282   64.791772        C
  132.840067    1.420282   74.791772        C
  132.840067    1.420282   84.791772        C
  132.840067    1.420282   94.791772        C
  132.840067    1.420282  104.791772        C
   36.900066    1.420282   14.791772        C
   36.900066    1.420282   24.791772        C
   36.900066    1.420282   34.791772        C
   36.900066    1.420282   44.791772        C
   36.900066    1.420282   54.791772        C
   36.900066    1.420282   64.791772        C
   36.900066    1.420282   74.791772        C
   36.900066    1.420282   84.791772        C
   36.900066    1.420282   94.791772        C
   36.900066    1.420282  104.791772        C
  135.300067    1.420282   14.791772        C
  135.300067    1.420282   24.791772        C
  135.300067    1.420282   34.791772        C
  135.300067    1.420282   44.791772        C
  135.300067    1.420282   54.791772        C
  135.300067    1.420282   64.791772        C
  135.300067    1.420282   74.791772        C
  135.300067    1.420282   84.791772        C
  135.300067    1.420282   94.791772        C
  135.300067    1.420282  104.791772        C
   39.360066    1.420282   14.791772        C
   39.360066    1.420282   24.791772        C
   39.360066    1.420282   34.791772        C
   39.360066    1.420282   44.791772        C
   39.360066    1.420282   54.791772        C
   39.360066    1.420282   64.791772        C
   39.360066    1.420282   74.791772        C
   39.360066    1.420282   84.791772        C
   39.360066    1.420282   94.791772        C
   39.360066    1.420282  104.791772        C
  137.760067    1.420282   14.791772        C
  137.760067    1.420282   24.791772        C
  137.760067    1.420282   34.791772        C
  137.760067    1.420282   44.791772        C
  137.760067    1.420282   54.791772        C
  137.760067    1.420282   64.791772        C
  137.760067    1.420282   74.791772        C
  137.760067    1.420282   84.791772        C
  137.760067    1.420282   94.791772        C
  137.760067    1.420282  104.791772        C
   41.820066    1.420282   14.791772        C
   41.820066    1.420282   24.791772        C
   41.820066    1.420282   34.791772        C
   41.820066    1.420282   44.791772        C
   41.820066    1.420282   54.791772        C
   41.820066    1.420282   64.791772        C
   41.820066    1.420282   74.791772        C
   41.820066    1.420282   84.791772        C
   41.820066    1.420282   94.791772        C
   41.820066    1.420282  104.791772        C
  140.220067    1.420282   14.791772        C
  140.220067    1.420282   24.791772        C
  140.220067    1.420282   34.791772        C
  140.220067    1.420282   44.791772        C
  140.220067    1.420282   54.791772        C
  140.220067    1.420282   64.791772        C
  140.220067    1.420282   74.791772        C
  140.220067    1.420282   84.791772        C
  140.220067    1.420282   94.791772        C
  140.220067    1.420282  104.791772        C
   44.280066    1.420282   14.791772        C
   44.280066    1.420282   24.791772        C
   44.280066    1.420282   34.791772        C
   44.280066    1.420282   44.791772        C
   44.280066    1.420282   54.791772        C
   44.280066    1.420282   64.791772        C
   44.280066    1.420282   74.791772        C
   44.280066    1.420282   84.791772        C
   44.280066    1.420282   94.791772        C
   44.280066    1.420282  104.791772        C
  142.680067    1.420282   14.791772        C
  142.680067    1.420282   24.791772        C
  142.680067    1.420282   34.791772        C
  142.680067    1.420282   44.791772        C
  142.680067    1.420282   54.791772        C
  142.680067    1.420282   64.791772        C
  142.680067    1.420282   74.791772        C
  142.680067    1.420282   84.791772        C
  142.680067    1.420282   94.791772        C
  142.680067    1.420282  104.791772        C
   46.740066    1.420282   14.791772        C
   46.740066    1.420282   24.791772        C
   46.740066    1.420282   34.791772        C
   46.740066    1.420282   44.791772        C
   46.740066    1.420282   54.791772        C
   46.740066    1.420282   64.791772        C
   46.740066    1.420282   74.791772        C
   46.740066    1.420282   84.791772        C
   46.740066    1.420282   94.791772        C
   46.740066    1.420282  104.791772        C
  145.140067    1.420282   14.791772        C
  145.140067    1.420282   24.791772        C
  145.140067    1.420282   34.791772        C
  145.140067    1.420282   44.791772        C
  145.140067    1.420282   54.791772        C
  145.140067    1.420282   64.791772        C
  145.140067    1.420282   74.791772        C
  145.140067    1.420282   84.791772        C
  145.140067    1.420282   94.791772        C
  145.140067    1.420282  104.791772        C
   49.200066    1.420282   14.791772        C
   49.200066    1.420282   24.791772        C
   49.200066    1.420282   34.791772        C
   49.200066    1.420282   44.791772        C
   49.200066    1.420282   54.791772        C
   49.200066    1.420282   64.791772        C
   49.200066    1.420282   74.791772        C
   49.200066    1.420282   84.791772        C
   49.200066    1.420282   94.791772        C
   49.200066    1.420282  104.791772        C
  147.600067    1.420282   14.791772        C
  147.600067    1.420282   24.791772        C
  147.600067    1.420282   34.791772        C
  147.600067    1.420282   44.791772        C
  147.600067    1.420282   54.791772        C
  147.600067    1.420282   64.791772        C
  147.600067    1.420282   74.791772        C
  147.600067    1.420282   84.791772        C
  147.600067    1.420282   94.791772        C
  147.600067    1.420282  104.791772        C
   51.660066    1.420282   14.791772        C
   51.660066    1.420282   24.791772        C
   51.660066    1.420282   34.791772        C
   51.660066    1.420282   44.791772        C
   51.660066    1.420282   54.791772        C
   51.660066    1.420282   64.791772        C
   51.660066    1.420282   74.791772        C
   51.660066    1.420282   84.791772        C
   51.660066    1.420282   94.791772        C
   51.660066    1.420282  104.791772        C
  150.060067    1.420282   14.791772        C
  150.060067    1.420282   24.791772        C
  150.060067    1.420282   34.791772        C
  150.060067    1.420282   44.791772        C
  150.060067    1.420282   54.791772        C
  150.060067    1.420282   64.791772        C
  150.060067    1.420282   74.791772        C
  150.060067    1.420282   84.791772        C
  150.060067    1.420282   94.791772        C
  150.060067    1.420282  104.791772        C
   54.120066    1.420282   14.791772        C
   54.120066    1.420282   24.791772        C
   54.120066    1.420282   34.791772        C
   54.120066    1.420282   44.791772        C
   54.120066    1.420282   54.791772        C
   54.120066    1.420282   64.791772        C
   54.120066    1.420282   74.791772        C
   54.120066    1.420282   84.791772        C
   54.120066    1.420282   94.791772        C
   54.120066    1.420282  104.791772        C
  152.520068    1.420282   14.791772        C
  152.520068    1.420282   24.791772        C
  152.520068    1.420282   34.791772        C
  152.520068    1.420282   44.791772        C
  152.520068    1.420282   54.791772        C
  152.520068    1.420282   64.791772        C
  152.520068    1.420282   74.791772        C
  152.520068    1.420282   84.791772        C
  152.520068    1.420282   94.791772        C
  152.520068    1.420282  104.791772        C
   56.580066    1.420282   14.791772        C
   56.580066    1.420282   24.791772        C
   56.580066    1.420282   34.791772        C
   56.580066    1.420282   44.791772        C
   56.580066    1.420282   54.791772        C
   56.580066    1.420282   64.791772        C
   56.580066    1.420282   74.791772        C
   56.580066    1.420282   84.791772        C
   56.580066    1.420282   94.791772        C
   56.580066    1.420282  104.791772        C
  154.980068    1.420282   14.791772        C
  154.980068    1.420282   24.791772        C
  154.980068    1.420282   34.791772        C
  154.980068    1.420282   44.791772        C
  154.980068    1.420282   54.791772        C
  154.980068    1.420282   64.791772        C
  154.980068    1.420282   74.791772        C
  154.980068    1.420282   84.791772        C
  154.980068    1.420282   94.791772        C
  154.980068    1.420282  104.791772        C
   59.040066    1.420282   14.791772        C
   59.040066    1.420282   24.791772        C
   59.040066    1.420282   34.791772        C
   59.040066    1.420282   44.791772        C
   59.040066    1.420282   54.791772        C
   59.040066    1.420282   64.791772        C
   59.040066    1.420282   74.791772        C
   59.040066    1.420282   84.791772        C
   59.040066    1.420282   94.791772        C
   59.040066    1.420282  104.791772        C
  157.440068    1.420282   14.791772        C
  157.440068    1.420282   24.791772        C
  157.440068    1.420282   34.791772        C
  157.440068    1.420282   44.791772        C
  157.440068    1.420282   54.791772        C
  157.440068    1.420282   64.791772        C
  157.440068    1.420282   74.791772        C
  157.440068    1.420282   84.791772        C
  157.440068    1.420282   94.791772        C
  157.440068    1.420282  104.791772        C
   61.500066    1.420282   14.791772        C
   61.500066    1.420282   24.791772        C
   61.500066    1.420282   34.791772        C
   61.500066    1.420282   44.791772        C
   61.500066    1.420282   54.791772        C
   61.500066    1.420282   64.791772        C
   61.500066    1.420282   74.791772        C
   61.500066    1.420282   84.791772        C
   61.500066    1.420282   94.791772        C
   61.500066    1.420282  104.791772        C
  159.900068    1.420282   14.791772        C
  159.900068    1.420282   24.791772        C
  159.900068    1.420282   34.791772        C
  159.900068    1.420282   44.791772        C
  159.900068    1.420282   54.791772        C
  159.900068    1.420282   64.791772        C
  159.900068    1.420282   74.791772        C
  159.900068    1.420282   84.791772        C
  159.900068    1.420282   94.791772        C
  159.900068    1.420282  104.791772        C
   63.960066    1.420282   14.791772        C
   63.960066    1.420282   24.791772        C
   63.960066    1.420282   34.791772        C
   63.960066    1.420282   44.791772        C
   63.960066    1.420282   54.791772        C
   63.960066    1.420282   64.791772        C
   63.960066    1.420282   74.791772        C
   63.960066    1.420282   84.791772        C
   63.960066    1.420282   94.791772        C
   63.960066    1.420282  104.791772        C
  162.360068    1.420282   14.791772        C
  162.360068    1.420282   24.791772        C
  162.360068    1.420282   34.791772        C
  162.360068    1.420282   44.791772        C
  162.360068    1.420282   54.791772        C
  162.360068    1.420282   64.791772        C
  162.360068    1.420282   74.791772        C
  162.360068    1.420282   84.791772        C
  162.360068    1.420282   94.791772        C
  162.360068    1.420282  104.791772        C
   66.420066    1.420282   14.791772        C
   66.420066    1.420282   24.791772        C
   66.420066    1.420282   34.791772        C
   66.420066    1.420282   44.791772        C
   66.420066    1.420282   54.791772        C
   66.420066    1.420282   64.791772        C
   66.420066    1.420282   74.791772        C
   66.420066    1.420282   84.791772        C
   66.420066    1.420282   94.791772        C
   66.420066    1.420282  104.791772        C
  164.820068    1.420282   14.791772        C
  164.820068    1.420282   24.791772        C
  164.820068    1.420282   34.791772        C
  164.820068    1.420282   44.791772        C
  164.820068    1.420282   54.791772        C
  164.820068    1.420282   64.791772        C
  164.820068    1.420282   74.791772        C
  164.820068    1.420282   84.791772        C
  164.820068    1.420282   94.791772        C
  164.820068    1.420282  104.791772        C
   68.880066    1.420282   14.791772        C
   68.880066    1.420282   24.791772        C
   68.880066    1.420282   34.791772        C
   68.880066    1.420282   44.791772        C
   68.880066    1.420282   54.791772        C
   68.880066    1.420282   64.791772        C
   68.880066    1.420282   74.791772        C
   68.880066    1.420282   84.791772        C
   68.880066    1.420282   94.791772        C
   68.880066    1.420282  104.791772        C
  167.280068    1.420282   14.791772        C
  167.280068    1.420282   24.791772        C
  167.280068    1.420282   34.791772        C
  167.280068    1.420282   44.791772        C
  167.280068    1.420282   54.791772        C
  167.280068    1.420282   64.791772        C
  167.280068    1.420282   74.791772        C
  167.280068    1.420282   84.791772        C
  167.280068    1.420282   94.791772        C
  167.280068    1.420282  104.791772        C
   71.340066    1.420282   14.791772        C
   71.340066    1.420282   24.791772        C
   71.340066    1.420282   34.791772        C
   71.340066    1.420282   44.791772        C
   71.340066    1.420282   54.791772        C
   71.340066    1.420282   64.791772        C
   71.340066    1.420282   74.791772        C
   71.340066    1.420282   84.791772        C
   71.340066    1.420282   94.791772        C
   71.340066    1.420282  104.791772        C
  169.740068    1.420282   14.791772        C
  169.740068    1.420282   24.791772        C
  169.740068    1.420282   34.791772        C
  169.740068    1.420282   44.791772        C
  169.740068    1.420282   54.791772        C
  169.740068    1.420282   64.791772        C
  169.740068    1.420282   74.791772        C
  169.740068    1.420282   84.791772        C
  169.740068    1.420282   94.791772        C
  169.740068    1.420282  104.791772        C
   73.800066    1.420282   14.791772        C
   73.800066    1.420282   24.791772        C
   73.800066    1.420282   34.791772        C
   73.800066    1.420282   44.791772        C
   73.800066    1.420282   54.791772        C
   73.800066    1.420282   64.791772        C
   73.800066    1.420282   74.791772        C
   73.800066    1.420282   84.791772        C
   73.800066    1.420282   94.791772        C
   73.800066    1.420282  104.791772        C
  172.200068    1.420282   14.791772        C
  172.200068    1.420282   24.791772        C
  172.200068    1.420282   34.791772        C
  172.200068    1.420282   44.791772        C
  172.200068    1.420282   54.791772        C
  172.200068    1.420282   64.791772        C
  172.200068    1.420282   74.791772        C
  172.200068    1.420282   84.791772        C
  172.200068    1.420282   94.791772        C
  172.200068    1.420282  104.791772        C
   76.260066    1.420282   14.791772        C
   76.260066    1.420282   24.791772        C
   76.260066    1.420282   34.791772        C
   76.260066    1.420282   44.791772        C
   76.260066    1.420282   54.791772        C
   76.260066    1.420282   64.791772        C
   76.260066    1.420282   74.791772        C
   76.260066    1.420282   84.791772        C
   76.260066    1.420282   94.791772        C
   76.260066    1.420282  104.791772        C
  174.660068    1.420282   14.791772        C
  174.660068    1.420282   24.791772        C
  174.660068    1.420282   34.791772        C
  174.660068    1.420282   44.791772        C
  174.660068    1.420282   54.791772        C
  174.660068    1.420282   64.791772        C
  174.660068    1.420282   74.791772        C
  174.660068    1.420282   84.791772        C
  174.660068    1.420282   94.791772        C
  174.660068    1.420282  104.791772        C
   78.720066    1.420282   14.791772        C
   78.720066    1.420282   24.791772        C
   78.720066    1.420282   34.791772        C
   78.720066    1.420282   44.791772        C
   78.720066    1.420282   54.791772        C
   78.720066    1.420282   64.791772        C