New structure
1.0
        4.9200000763         0.0000000000         0.0000000000
       -2.4600000381         4.2608450527         0.0000000000
        0.0000000000         0.0000000000        10.0000000000
    C
    8
Direct
     0.166666672         0.333333343         0.000000000
     0.166666672         0.833333373         0.000000000
     0.333333313         0.166666657         0.000000000
     0.333333313         0.666666627         0.000000000
     0.666666687         0.833333373         0.000000000
     0.666666687         0.333333343         0.000000000
     0.833333313         0.166666657         0.000000000
     0.833333313         0.666666627         0.000000000
