C 
 1.0000000000000000
    21.3771080970000007    0.0000000000000000    0.0000000000000000
     0.0000000000000000    4.9368319512000003    0.0000000000000000
     0.0000000000000000    0.0000000000000000   10.0000000000000000
 C  
  80
Cartesian
  1.4251405811290758  0.0000000000000000  3.3250001100000000
  2.8502811665335730  0.0000000000000000  3.3250001100000000
  5.7005622005290757  0.0000000000000000  3.3250001100000000
  7.1257027859335729  0.0000000000000000  3.3250001100000000
  9.9759838199290769  0.0000000000000000  3.3250001100000000
 11.4011244053335741  0.0000000000000000  3.3250001100000000
 14.2514054393290781  0.0000000000000000  3.3250001100000000
 15.6765460247335753  0.0000000000000000  3.3250001100000000
 18.5268270587290758  0.0000000000000000  3.3250001100000000
 19.9519676441335747  0.0000000000000000  3.3250001100000000
  0.7125702927022486  1.2342079878000001  3.3250001100000000
  3.5628515190917245  1.2342079878000001  3.3250001100000000
  4.9879919121022489  1.2342079878000001  3.3250001100000000
  7.8382731384917248  1.2342079878000001  3.3250001100000000
  9.2634135315022483  1.2342079878000001  3.3250001100000000
 12.1136947578917251  1.2342079878000001  3.3250001100000000
 13.5388351509022513  1.2342079878000001  3.3250001100000000
 16.3891163772917281  1.2342079878000001  3.3250001100000000
 17.8142567703022507  1.2342079878000001  3.3250001100000000
 20.6645379966917275  1.2342079878000001  3.3250001100000000
  1.4251405811290758  2.4684159756000001  3.3250001100000000
  2.8502811665335730  2.4684159756000001  3.3250001100000000
  5.7005622005290757  2.4684159756000001  3.3250001100000000
  7.1257027859335729  2.4684159756000001  3.3250001100000000
  9.9759838199290769  2.4684159756000001  3.3250001100000000
 11.4011244053335741  2.4684159756000001  3.3250001100000000
 14.2514054393290781  2.4684159756000001  3.3250001100000000
 15.6765460247335753  2.4684159756000001  3.3250001100000000
 18.5268270587290758  2.4684159756000001  3.3250001100000000
 19.9519676441335747  2.4684159756000001  3.3250001100000000
  0.7125702927022486  3.7026239634000002  3.3250001100000000
  3.5628515190917245  3.7026239634000002  3.3250001100000000
  4.9879919121022489  3.7026239634000002  3.3250001100000000
  7.8382731384917248  3.7026239634000002  3.3250001100000000
  9.2634135315022483  3.7026239634000002  3.3250001100000000
 12.1136947578917251  3.7026239634000002  3.3250001100000000
 13.5388351509022513  3.7026239634000002  3.3250001100000000
 16.3891163772917281  3.7026239634000002  3.3250001100000000
 17.8142567703022507  3.7026239634000002  3.3250001100000000
 20.6645379966917275  3.7026239634000002  3.3250001100000000
  0.0000000000000000  0.0000000000000000  6.6750001900000004
  1.4251405811290758  0.0000000000000000  6.6750001900000004
  4.2754216194000003  0.0000000000000000  6.6750001900000004
  5.7005622005290757  0.0000000000000000  6.6750001900000004
  8.5508432388000006  0.0000000000000000  6.6750001900000004
  9.9759838199290769  0.0000000000000000  6.6750001900000004
 12.8262648582000018  0.0000000000000000  6.6750001900000004
 14.2514054393290781  0.0000000000000000  6.6750001900000004
 17.1016864776000013  0.0000000000000000  6.6750001900000004
 18.5268270587290758  0.0000000000000000  6.6750001900000004
  2.1377108097000002  1.2342079878000001  6.6750001900000004
  3.5628515190917245  1.2342079878000001  6.6750001900000004
  6.4131324291000009  1.2342079878000001  6.6750001900000004
  7.8382731384917248  1.2342079878000001  6.6750001900000004
 10.6885540485000003  1.2342079878000001  6.6750001900000004
 12.1136947578917251  1.2342079878000001  6.6750001900000004
 14.9639756679000016  1.2342079878000001  6.6750001900000004
 16.3891163772917281  1.2342079878000001  6.6750001900000004
 19.2393972873000010  1.2342079878000001  6.6750001900000004
 20.6645379966917275  1.2342079878000001  6.6750001900000004
  0.0000000000000000  2.4684159756000001  6.6750001900000004
  1.4251405811290758  2.4684159756000001  6.6750001900000004
  4.2754216194000003  2.4684159756000001  6.6750001900000004
  5.7005622005290757  2.4684159756000001  6.6750001900000004
  8.5508432388000006  2.4684159756000001  6.6750001900000004
  9.9759838199290769  2.4684159756000001  6.6750001900000004
 12.8262648582000018  2.4684159756000001  6.6750001900000004
 14.2514054393290781  2.4684159756000001  6.6750001900000004
 17.1016864776000013  2.4684159756000001  6.6750001900000004
 18.5268270587290758  2.4684159756000001  6.6750001900000004
  2.1377108097000002  3.7026239634000002  6.6750001900000004
  3.5628515190917245  3.7026239634000002  6.6750001900000004
  6.4131324291000009  3.7026239634000002  6.6750001900000004
  7.8382731384917248  3.7026239634000002  6.6750001900000004
 10.6885540485000003  3.7026239634000002  6.6750001900000004
 12.1136947578917251  3.7026239634000002  6.6750001900000004
 14.9639756679000016  3.7026239634000002  6.6750001900000004
 16.3891163772917281  3.7026239634000002  6.6750001900000004
 19.2393972873000010  3.7026239634000002  6.6750001900000004
 20.6645379966917275  3.7026239634000002  6.6750001900000004
