New structure
1.0
      102.2602844238         0.0000000000         0.0000000000
        0.0000000000         2.4599997997         0.0000000000
        0.0000000000         0.0000000000        10.0000000000
    C
   96
Cartesian
     3.550704109         1.229999900         0.000000000
     7.811549420         1.229999900         0.000000000
    12.072394350         1.229999900         0.000000000
    16.333240043         1.229999900         0.000000000
    20.594084211         1.229999900         0.000000000
    24.854929903         1.229999900         0.000000000
    29.115774072         1.229999900         0.000000000
    33.376621288         1.229999900         0.000000000
    37.637465456         1.229999900         0.000000000
    41.898309625         1.229999900         0.000000000
    46.159156841         1.229999900         0.000000000
    50.420001009         1.229999900         0.000000000
    54.680845178         1.229999900         0.000000000
    58.941692394         1.229999900         0.000000000
    63.202539610         1.229999900         0.000000000
    67.463380731         1.229999900         0.000000000
    71.724227947         1.229999900         0.000000000
    75.985075163         1.229999900         0.000000000
    80.245916284         1.229999900         0.000000000
    84.506763500         1.229999900         0.000000000
    88.767610716         1.229999900         0.000000000
    93.028451837         1.229999900         0.000000000
    97.289299053         1.229999900         0.000000000
   101.550146269         1.229999900         0.000000000
     1.420281358         0.000000000         0.000000000
     5.681126574         0.000000000         0.000000000
     9.941971504         0.000000000         0.000000000
    14.202816435         0.000000000         0.000000000
    18.463662127         0.000000000         0.000000000
    22.724507819         0.000000000         0.000000000
    26.985353511         0.000000000         0.000000000
    31.246197680         0.000000000         0.000000000
    35.507041848         0.000000000         0.000000000
    39.767889064         0.000000000         0.000000000
    44.028733233         0.000000000         0.000000000
    48.289577401         0.000000000         0.000000000
    52.550424617         0.000000000         0.000000000
    56.811265738         0.000000000         0.000000000
    61.072112954         0.000000000         0.000000000
    65.332960170         0.000000000         0.000000000
    69.593801291         0.000000000         0.000000000
    73.854648507         0.000000000         0.000000000
    78.115495723         0.000000000         0.000000000
    82.376336844         0.000000000         0.000000000
    86.637184060         0.000000000         0.000000000
    90.898031276         0.000000000         0.000000000
    95.158872397         0.000000000         0.000000000
    99.419719613         0.000000000         0.000000000
     0.710140822         1.229999827         0.000000000
     4.970986133         1.229999827         0.000000000
     9.231831063         1.229999827         0.000000000
    13.492676756         1.229999827         0.000000000
    17.753520924         1.229999827         0.000000000
    22.014366616         1.229999827         0.000000000
    26.275212309         1.229999827         0.000000000
    30.536056477         1.229999827         0.000000000
    34.796903693         1.229999827         0.000000000
    39.057747862         1.229999827         0.000000000
    43.318592030         1.229999827         0.000000000
    47.579439246         1.229999827         0.000000000
    51.840280367         1.229999827         0.000000000
    56.101127583         1.229999827         0.000000000
    60.361974799         1.229999827         0.000000000
    64.622815920         1.229999827         0.000000000
    68.883663136         1.229999827         0.000000000
    73.144510352         1.229999827         0.000000000
    77.405351473         1.229999827         0.000000000
    81.666198689         1.229999827         0.000000000
    85.927045905         1.229999827         0.000000000
    90.187887026         1.229999827         0.000000000
    94.448734242         1.229999827         0.000000000
    98.709581458         1.229999827         0.000000000
     2.840563287         0.000000000         0.000000000
     7.101408217         0.000000000         0.000000000
    11.362253910         0.000000000         0.000000000
    15.623098840         0.000000000         0.000000000
    19.883944532         0.000000000         0.000000000
    24.144788701         0.000000000         0.000000000
    28.405635917         0.000000000         0.000000000
    32.666480085         0.000000000         0.000000000
    36.927324254         0.000000000         0.000000000
    41.188171470         0.000000000         0.000000000
    45.449015638         0.000000000         0.000000000
    49.709859807         0.000000000         0.000000000
    53.970707023         0.000000000         0.000000000
    58.231548143         0.000000000         0.000000000
    62.492395360         0.000000000         0.000000000
    66.753242576         0.000000000         0.000000000
    71.014083696         0.000000000         0.000000000
    75.274930913         0.000000000         0.000000000
    79.535778129         0.000000000         0.000000000
    83.796619249         0.000000000         0.000000000
    88.057466465         0.000000000         0.000000000
    92.318313682         0.000000000         0.000000000
    96.579154802         0.000000000         0.000000000
   100.840002018         0.000000000         0.000000000
