POSCAR for slab defined by SURFACE card and Nslab and Vacuum_thickness_in_Angstrom in wt.in by WannierTools
1.0
   14.760000    0.000000    0.000000
   -7.380000   12.782535    0.000000
    0.000000    0.000000  110.583544
C     
   720
Cartesian
    0.000007    1.420280   14.791772        C
    0.000007    1.420280   24.791772        C
    0.000007    1.420280   34.791772        C
    0.000007    1.420280   44.791772        C
    0.000007    1.420280   54.791772        C
    0.000007    1.420280   64.791772        C
    0.000007    1.420280   74.791772        C
    0.000007    1.420280   84.791772        C
    0.000007    1.420280   94.791772        C
    0.000007    1.420280  104.791772        C
   -1.229995    3.550707   14.791772        C
   -1.229995    3.550707   24.791772        C
   -1.229995    3.550707   34.791772        C
   -1.229995    3.550707   44.791772        C
   -1.229995    3.550707   54.791772        C
   -1.229995    3.550707   64.791772        C
   -1.229995    3.550707   74.791772        C
   -1.229995    3.550707   84.791772        C
   -1.229995    3.550707   94.791772        C
   -1.229995    3.550707  104.791772        C
   -2.459990    5.681121   14.791772        C
   -2.459990    5.681121   24.791772        C
   -2.459990    5.681121   34.791772        C
   -2.459990    5.681121   44.791772        C
   -2.459990    5.681121   54.791772        C
   -2.459990    5.681121   64.791772        C
   -2.459990    5.681121   74.791772        C
   -2.459990    5.681121   84.791772        C
   -2.459990    5.681121   94.791772        C
   -2.459990    5.681121  104.791772        C
   -3.689993    7.811548   14.791772        C
   -3.689993    7.811548   24.791772        C
   -3.689993    7.811548   34.791772        C
   -3.689993    7.811548   44.791772        C
   -3.689993    7.811548   54.791772        C
   -3.689993    7.811548   64.791772        C
   -3.689993    7.811548   74.791772        C
   -3.689993    7.811548   84.791772        C
   -3.689993    7.811548   94.791772        C
   -3.689993    7.811548  104.791772        C
   -4.919995    9.941975   14.791772        C
   -4.919995    9.941975   24.791772        C
   -4.919995    9.941975   34.791772        C
   -4.919995    9.941975   44.791772        C
   -4.919995    9.941975   54.791772        C
   -4.919995    9.941975   64.791772        C
   -4.919995    9.941975   74.791772        C
   -4.919995    9.941975   84.791772        C
   -4.919995    9.941975   94.791772        C
   -4.919995    9.941975  104.791772        C
   -6.149990   12.072388   14.791772        C
   -6.149990   12.072388   24.791772        C
   -6.149990   12.072388   34.791772        C
   -6.149990   12.072388   44.791772        C
   -6.149990   12.072388   54.791772        C
   -6.149990   12.072388   64.791772        C
   -6.149990   12.072388   74.791772        C
   -6.149990   12.072388   84.791772        C
   -6.149990   12.072388   94.791772        C
   -6.149990   12.072388  104.791772        C
    2.459998    1.420280   14.791772        C
    2.459998    1.420280   24.791772        C
    2.459998    1.420280   34.791772        C
    2.459998    1.420280   44.791772        C
    2.459998    1.420280   54.791772        C
    2.459998    1.420280   64.791772        C
    2.459998    1.420280   74.791772        C
    2.459998    1.420280   84.791772        C
    2.459998    1.420280   94.791772        C
    2.459998    1.420280  104.791772        C
    1.229995    3.550707   14.791772        C
    1.229995    3.550707   24.791772        C
    1.229995    3.550707   34.791772        C
    1.229995    3.550707   44.791772        C
    1.229995    3.550707   54.791772        C
    1.229995    3.550707   64.791772        C
    1.229995    3.550707   74.791772        C
    1.229995    3.550707   84.791772        C
    1.229995    3.550707   94.791772        C
    1.229995    3.550707  104.791772        C
    0.000000    5.681121   14.791772        C
    0.000000    5.681121   24.791772        C
    0.000000    5.681121   34.791772        C
    0.000000    5.681121   44.791772        C
    0.000000    5.681121   54.791772        C
    0.000000    5.681121   64.791772        C
    0.000000    5.681121   74.791772        C
    0.000000    5.681121   84.791772        C
    0.000000    5.681121   94.791772        C
    0.000000    5.681121  104.791772        C
   -1.230002    7.811548   14.791772        C
   -1.230002    7.811548   24.791772        C
   -1.230002    7.811548   34.791772        C
   -1.230002    7.811548   44.791772        C
   -1.230002    7.811548   54.791772        C
   -1.230002    7.811548   64.791772        C
   -1.230002    7.811548   74.791772        C
   -1.230002    7.811548   84.791772        C
   -1.230002    7.811548   94.791772        C
   -1.230002    7.811548  104.791772        C
   -2.460005    9.941975   14.791772        C
   -2.460005    9.941975   24.791772        C
   -2.460005    9.941975   34.791772        C
   -2.460005    9.941975   44.791772        C
   -2.460005    9.941975   54.791772        C
   -2.460005    9.941975   64.791772        C
   -2.460005    9.941975   74.791772        C
   -2.460005    9.941975   84.791772        C
   -2.460005    9.941975   94.791772        C
   -2.460005    9.941975  104.791772        C
   -3.690000   12.072388   14.791772        C
   -3.690000   12.072388   24.791772        C
   -3.690000   12.072388   34.791772        C
   -3.690000   12.072388   44.791772        C
   -3.690000   12.072388   54.791772        C
   -3.690000   12.072388   64.791772        C
   -3.690000   12.072388   74.791772        C
   -3.690000   12.072388   84.791772        C
   -3.690000   12.072388   94.791772        C
   -3.690000   12.072388  104.791772        C
    4.920002    1.420280   14.791772        C
    4.920002    1.420280   24.791772        C
    4.920002    1.420280   34.791772        C
    4.920002    1.420280   44.791772        C
    4.920002    1.420280   54.791772        C
    4.920002    1.420280   64.791772        C
    4.920002    1.420280   74.791772        C
    4.920002    1.420280   84.791772        C
    4.920002    1.420280   94.791772        C
    4.920002    1.420280  104.791772        C
    3.690000    3.550707   14.791772        C
    3.690000    3.550707   24.791772        C
    3.690000    3.550707   34.791772        C
    3.690000    3.550707   44.791772        C
    3.690000    3.550707   54.791772        C
    3.690000    3.550707   64.791772        C
    3.690000    3.550707   74.791772        C
    3.690000    3.550707   84.791772        C
    3.690000    3.550707   94.791772        C
    3.690000    3.550707  104.791772        C
    2.460005    5.681121   14.791772        C
    2.460005    5.681121   24.791772        C
    2.460005    5.681121   34.791772        C
    2.460005    5.681121   44.791772        C
    2.460005    5.681121   54.791772        C
    2.460005    5.681121   64.791772        C
    2.460005    5.681121   74.791772        C
    2.460005    5.681121   84.791772        C
    2.460005    5.681121   94.791772        C
    2.460005    5.681121  104.791772        C
    1.230002    7.811548   14.791772        C
    1.230002    7.811548   24.791772        C
    1.230002    7.811548   34.791772        C
    1.230002    7.811548   44.791772        C
    1.230002    7.811548   54.791772        C
    1.230002    7.811548   64.791772        C
    1.230002    7.811548   74.791772        C
    1.230002    7.811548   84.791772        C
    1.230002    7.811548   94.791772        C
    1.230002    7.811548  104.791772        C
    0.000000    9.941975   14.791772        C
    0.000000    9.941975   24.791772        C
    0.000000    9.941975   34.791772        C
    0.000000    9.941975   44.791772        C
    0.000000    9.941975   54.791772        C
    0.000000    9.941975   64.791772        C
    0.000000    9.941975   74.791772        C
    0.000000    9.941975   84.791772        C
    0.000000    9.941975   94.791772        C
    0.000000    9.941975  104.791772        C
   -1.229995   12.072388   14.791772        C
   -1.229995   12.072388   24.791772        C
   -1.229995   12.072388   34.791772        C
   -1.229995   12.072388   44.791772        C
   -1.229995   12.072388   54.791772        C
   -1.229995   12.072388   64.791772        C
   -1.229995   12.072388   74.791772        C
   -1.229995   12.072388   84.791772        C
   -1.229995   12.072388   94.791772        C
   -1.229995   12.072388  104.791772        C
    7.380007    1.420280   14.791772        C
    7.380007    1.420280   24.791772        C
    7.380007    1.420280   34.791772        C
    7.380007    1.420280   44.791772        C
    7.380007    1.420280   54.791772        C
    7.380007    1.420280   64.791772        C
    7.380007    1.420280   74.791772        C
    7.380007    1.420280   84.791772        C
    7.380007    1.420280   94.791772        C
    7.380007    1.420280  104.791772        C
    6.150005    3.550707   14.791772        C
    6.150005    3.550707   24.791772        C
    6.150005    3.550707   34.791772        C
    6.150005    3.550707   44.791772        C
    6.150005    3.550707   54.791772        C
    6.150005    3.550707   64.791772        C
    6.150005    3.550707   74.791772        C
    6.150005    3.550707   84.791772        C
    6.150005    3.550707   94.791772        C
    6.150005    3.550707  104.791772        C
    4.920010    5.681121   14.791772        C
    4.920010    5.681121   24.791772        C
    4.920010    5.681121   34.791772        C
    4.920010    5.681121   44.791772        C
    4.920010    5.681121   54.791772        C
    4.920010    5.681121   64.791772        C
    4.920010    5.681121   74.791772        C
    4.920010    5.681121   84.791772        C
    4.920010    5.681121   94.791772        C
    4.920010    5.681121  104.791772        C
    3.690007    7.811548   14.791772        C
    3.690007    7.811548   24.791772        C
    3.690007    7.811548   34.791772        C
    3.690007    7.811548   44.791772        C
    3.690007    7.811548   54.791772        C
    3.690007    7.811548   64.791772        C
    3.690007    7.811548   74.791772        C
    3.690007    7.811548   84.791772        C
    3.690007    7.811548   94.791772        C
    3.690007    7.811548  104.791772        C
    2.460005    9.941975   14.791772        C
    2.460005    9.941975   24.791772        C
    2.460005    9.941975   34.791772        C
    2.460005    9.941975   44.791772        C
    2.460005    9.941975   54.791772        C
    2.460005    9.941975   64.791772        C
    2.460005    9.941975   74.791772        C
    2.460005    9.941975   84.791772        C
    2.460005    9.941975   94.791772        C
    2.460005    9.941975  104.791772        C
    1.230010   12.072388   14.791772        C
    1.230010   12.072388   24.791772        C
    1.230010   12.072388   34.791772        C
    1.230010   12.072388   44.791772        C
    1.230010   12.072388   54.791772        C
    1.230010   12.072388   64.791772        C
    1.230010   12.072388   74.791772        C
    1.230010   12.072388   84.791772        C
    1.230010   12.072388   94.791772        C
    1.230010   12.072388  104.791772        C
    9.839998    1.420280   14.791772        C
    9.839998    1.420280   24.791772        C
    9.839998    1.420280   34.791772        C
    9.839998    1.420280   44.791772        C
    9.839998    1.420280   54.791772        C
    9.839998    1.420280   64.791772        C
    9.839998    1.420280   74.791772        C
    9.839998    1.420280   84.791772        C
    9.839998    1.420280   94.791772        C
    9.839998    1.420280  104.791772        C
    8.609995    3.550707   14.791772        C
    8.609995    3.550707   24.791772        C
    8.609995    3.550707   34.791772        C
    8.609995    3.550707   44.791772        C
    8.609995    3.550707   54.791772        C
    8.609995    3.550707   64.791772        C
    8.609995    3.550707   74.791772        C
    8.609995    3.550707   84.791772        C
    8.609995    3.550707   94.791772        C
    8.609995    3.550707  104.791772        C
    7.380000    5.681121   14.791772        C
    7.380000    5.681121   24.791772        C
    7.380000    5.681121   34.791772        C
    7.380000    5.681121   44.791772        C
    7.380000    5.681121   54.791772        C
    7.380000    5.681121   64.791772        C
    7.380000    5.681121   74.791772        C
    7.380000    5.681121   84.791772        C
    7.380000    5.681121   94.791772        C
    7.380000    5.681121  104.791772        C
    6.149998    7.811548   14.791772        C
    6.149998    7.811548   24.791772        C
    6.149998    7.811548   34.791772        C
    6.149998    7.811548   44.791772        C
    6.149998    7.811548   54.791772        C
    6.149998    7.811548   64.791772        C
    6.149998    7.811548   74.791772        C
    6.149998    7.811548   84.791772        C
    6.149998    7.811548   94.791772        C
    6.149998    7.811548  104.791772        C
    4.919995    9.941975   14.791772        C
    4.919995    9.941975   24.791772        C
    4.919995    9.941975   34.791772        C
    4.919995    9.941975   44.791772        C
    4.919995    9.941975   54.791772        C
    4.919995    9.941975   64.791772        C
    4.919995    9.941975   74.791772        C
    4.919995    9.941975   84.791772        C
    4.919995    9.941975   94.791772        C
    4.919995    9.941975  104.791772        C
    3.690000   12.072388   14.791772        C
    3.690000   12.072388   24.791772        C
    3.690000   12.072388   34.791772        C
    3.690000   12.072388   44.791772        C
    3.690000   12.072388   54.791772        C
    3.690000   12.072388   64.791772        C
    3.690000   12.072388   74.791772        C
    3.690000   12.072388   84.791772        C
    3.690000   12.072388   94.791772        C
    3.690000   12.072388  104.791772        C
   12.300002    1.420280   14.791772        C
   12.300002    1.420280   24.791772        C
   12.300002    1.420280   34.791772        C
   12.300002    1.420280   44.791772        C
   12.300002    1.420280   54.791772        C
   12.300002    1.420280   64.791772        C
   12.300002    1.420280   74.791772        C
   12.300002    1.420280   84.791772        C
   12.300002    1.420280   94.791772        C
   12.300002    1.420280  104.791772        C
   11.070000    3.550707   14.791772        C
   11.070000    3.550707   24.791772        C
   11.070000    3.550707   34.791772        C
   11.070000    3.550707   44.791772        C
   11.070000    3.550707   54.791772        C
   11.070000    3.550707   64.791772        C
   11.070000    3.550707   74.791772        C
   11.070000    3.550707   84.791772        C
   11.070000    3.550707   94.791772        C
   11.070000    3.550707  104.791772        C
    9.840005    5.681121   14.791772        C
    9.840005    5.681121   24.791772        C
    9.840005    5.681121   34.791772        C
    9.840005    5.681121   44.791772        C
    9.840005    5.681121   54.791772        C
    9.840005    5.681121   64.791772        C
    9.840005    5.681121   74.791772        C
    9.840005    5.681121   84.791772        C
    9.840005    5.681121   94.791772        C
    9.840005    5.681121  104.791772        C
    8.610002    7.811548   14.791772        C
    8.610002    7.811548   24.791772        C
    8.610002    7.811548   34.791772        C
    8.610002    7.811548   44.791772        C
    8.610002    7.811548   54.791772        C
    8.610002    7.811548   64.791772        C
    8.610002    7.811548   74.791772        C
    8.610002    7.811548   84.791772        C
    8.610002    7.811548   94.791772        C
    8.610002    7.811548  104.791772        C
    7.380000    9.941975   14.791772        C
    7.380000    9.941975   24.791772        C
    7.380000    9.941975   34.791772        C
    7.380000    9.941975   44.791772        C
    7.380000    9.941975   54.791772        C
    7.380000    9.941975   64.791772        C
    7.380000    9.941975   74.791772        C
    7.380000    9.941975   84.791772        C
    7.380000    9.941975   94.791772        C
    7.380000    9.941975  104.791772        C
    6.150005   12.072388   14.791772        C
    6.150005   12.072388   24.791772        C
    6.150005   12.072388   34.791772        C
    6.150005   12.072388   44.791772        C
    6.150005   12.072388   54.791772        C
    6.150005   12.072388   64.791772        C
    6.150005   12.072388   74.791772        C
    6.150005   12.072388   84.791772        C
    6.150005   12.072388   94.791772        C
    6.150005   12.072388  104.791772        C
    1.229995    0.710147   14.791772        C
    1.229995    0.710147   24.791772        C
    1.229995    0.710147   34.791772        C
    1.229995    0.710147   44.791772        C
    1.229995    0.710147   54.791772        C
    1.229995    0.710147   64.791772        C
    1.229995    0.710147   74.791772        C
    1.229995    0.710147   84.791772        C
    1.229995    0.710147   94.791772        C
    1.229995    0.710147  104.791772        C
    0.000000    2.840560   14.791772        C
    0.000000    2.840560   24.791772        C
    0.000000    2.840560   34.791772        C
    0.000000    2.840560   44.791772        C
    0.000000    2.840560   54.791772        C
    0.000000    2.840560   64.791772        C
    0.000000    2.840560   74.791772        C
    0.000000    2.840560   84.791772        C
    0.000000    2.840560   94.791772        C
    0.000000    2.840560  104.791772        C
   -1.230002    4.970987   14.791772        C
   -1.230002    4.970987   24.791772        C
   -1.230002    4.970987   34.791772        C
   -1.230002    4.970987   44.791772        C
   -1.230002    4.970987   54.791772        C
   -1.230002    4.970987   64.791772        C
   -1.230002    4.970987   74.791772        C
   -1.230002    4.970987   84.791772        C
   -1.230002    4.970987   94.791772        C
   -1.230002    4.970987  104.791772        C
   -2.460005    7.101414   14.791772        C
   -2.460005    7.101414   24.791772        C
   -2.460005    7.101414   34.791772        C
   -2.460005    7.101414   44.791772        C
   -2.460005    7.101414   54.791772        C
   -2.460005    7.101414   64.791772        C
   -2.460005    7.101414   74.791772        C
   -2.460005    7.101414   84.791772        C
   -2.460005    7.101414   94.791772        C
   -2.460005    7.101414  104.791772        C
   -3.690000    9.231828   14.791772        C
   -3.690000    9.231828   24.791772        C
   -3.690000    9.231828   34.791772        C
   -3.690000    9.231828   44.791772        C
   -3.690000    9.231828   54.791772        C
   -3.690000    9.231828   64.791772        C
   -3.690000    9.231828   74.791772        C
   -3.690000    9.231828   84.791772        C
   -3.690000    9.231828   94.791772        C
   -3.690000    9.231828  104.791772        C
   -4.920002   11.362255   14.791772        C
   -4.920002   11.362255   24.791772        C
   -4.920002   11.362255   34.791772        C
   -4.920002   11.362255   44.791772        C
   -4.920002   11.362255   54.791772        C
   -4.920002   11.362255   64.791772        C
   -4.920002   11.362255   74.791772        C
   -4.920002   11.362255   84.791772        C
   -4.920002   11.362255   94.791772        C
   -4.920002   11.362255  104.791772        C
    3.690000    0.710147   14.791772        C
    3.690000    0.710147   24.791772        C
    3.690000    0.710147   34.791772        C
    3.690000    0.710147   44.791772        C
    3.690000    0.710147   54.791772        C
    3.690000    0.710147   64.791772        C
    3.690000    0.710147   74.791772        C
    3.690000    0.710147   84.791772        C
    3.690000    0.710147   94.791772        C
    3.690000    0.710147  104.791772        C
    2.460005    2.840560   14.791772        C
    2.460005    2.840560   24.791772        C
    2.460005    2.840560   34.791772        C
    2.460005    2.840560   44.791772        C
    2.460005    2.840560   54.791772        C
    2.460005    2.840560   64.791772        C
    2.460005    2.840560   74.791772        C
    2.460005    2.840560   84.791772        C
    2.460005    2.840560   94.791772        C
    2.460005    2.840560  104.791772        C
    1.230002    4.970987   14.791772        C
    1.230002    4.970987   24.791772        C
    1.230002    4.970987   34.791772        C
    1.230002    4.970987   44.791772        C
    1.230002    4.970987   54.791772        C
    1.230002    4.970987   64.791772        C
    1.230002    4.970987   74.791772        C
    1.230002    4.970987   84.791772        C
    1.230002    4.970987   94.791772        C
    1.230002    4.970987  104.791772        C
    0.000000    7.101414   14.791772        C
    0.000000    7.101414   24.791772        C
    0.000000    7.101414   34.791772        C
    0.000000    7.101414   44.791772        C
    0.000000    7.101414   54.791772        C
    0.000000    7.101414   64.791772        C
    0.000000    7.101414   74.791772        C
    0.000000    7.101414   84.791772        C
    0.000000    7.101414   94.791772        C
    0.000000    7.101414  104.791772        C
   -1.229995    9.231828   14.791772        C
   -1.229995    9.231828   24.791772        C
   -1.229995    9.231828   34.791772        C
   -1.229995    9.231828   44.791772        C
   -1.229995    9.231828   54.791772        C
   -1.229995    9.231828   64.791772        C
   -1.229995    9.231828   74.791772        C
   -1.229995    9.231828   84.791772        C
   -1.229995    9.231828   94.791772        C
   -1.229995    9.231828  104.791772        C
   -2.459998   11.362255   14.791772        C
   -2.459998   11.362255   24.791772        C
   -2.459998   11.362255   34.791772        C
   -2.459998   11.362255   44.791772        C
   -2.459998   11.362255   54.791772        C
   -2.459998   11.362255   64.791772        C
   -2.459998   11.362255   74.791772        C
   -2.459998   11.362255   84.791772        C
   -2.459998   11.362255   94.791772        C
   -2.459998   11.362255  104.791772        C
    6.149990    0.710147   14.791772        C
    6.149990    0.710147   24.791772        C
    6.149990    0.710147   34.791772        C
    6.149990    0.710147   44.791772        C
    6.149990    0.710147   54.791772        C
    6.149990    0.710147   64.791772        C
    6.149990    0.710147   74.791772        C
    6.149990    0.710147   84.791772        C
    6.149990    0.710147   94.791772        C
    6.149990    0.710147  104.791772        C
    4.919995    2.840560   14.791772        C
    4.919995    2.840560   24.791772        C
    4.919995    2.840560   34.791772        C
    4.919995    2.840560   44.791772        C
    4.919995    2.840560   54.791772        C
    4.919995    2.840560   64.791772        C
    4.919995    2.840560   74.791772        C
    4.919995    2.840560   84.791772        C
    4.919995    2.840560   94.791772        C
    4.919995    2.840560  104.791772        C
    3.689993    4.970987   14.791772        C
    3.689993    4.970987   24.791772        C
    3.689993    4.970987   34.791772        C
    3.689993    4.970987   44.791772        C
    3.689993    4.970987   54.791772        C
    3.689993    4.970987   64.791772        C
    3.689993    4.970987   74.791772        C
    3.689993    4.970987   84.791772        C
    3.689993    4.970987   94.791772        C
    3.689993    4.970987  104.791772        C
    2.459990    7.101414   14.791772        C
    2.459990    7.101414   24.791772        C
    2.459990    7.101414   34.791772        C
    2.459990    7.101414   44.791772        C
    2.459990    7.101414   54.791772        C
    2.459990    7.101414   64.791772        C
    2.459990    7.101414   74.791772        C
    2.459990    7.101414   84.791772        C
    2.459990    7.101414   94.791772        C
    2.459990    7.101414  104.791772        C
    1.229995    9.231828   14.791772        C
    1.229995    9.231828   24.791772        C
    1.229995    9.231828   34.791772        C
    1.229995    9.231828   44.791772        C
    1.229995    9.231828   54.791772        C
    1.229995    9.231828   64.791772        C
    1.229995    9.231828   74.791772        C
    1.229995    9.231828   84.791772        C
    1.229995    9.231828   94.791772        C
    1.229995    9.231828  104.791772        C
   -0.000007   11.362255   14.791772        C
   -0.000007   11.362255   24.791772        C
   -0.000007   11.362255   34.791772        C
   -0.000007   11.362255   44.791772        C
   -0.000007   11.362255   54.791772        C
   -0.000007   11.362255   64.791772        C
   -0.000007   11.362255   74.791772        C
   -0.000007   11.362255   84.791772        C
   -0.000007   11.362255   94.791772        C
   -0.000007   11.362255  104.791772        C
    8.609995    0.710147   14.791772        C
    8.609995    0.710147   24.791772        C
    8.609995    0.710147   34.791772        C
    8.609995    0.710147   44.791772        C
    8.609995    0.710147   54.791772        C
    8.609995    0.710147   64.791772        C
    8.609995    0.710147   74.791772        C
    8.609995    0.710147   84.791772        C
    8.609995    0.710147   94.791772        C
    8.609995    0.710147  104.791772        C
    7.380000    2.840560   14.791772        C
    7.380000    2.840560   24.791772        C
    7.380000    2.840560   34.791772        C
    7.380000    2.840560   44.791772        C
    7.380000    2.840560   54.791772        C
    7.380000    2.840560   64.791772        C
    7.380000    2.840560   74.791772        C
    7.380000    2.840560   84.791772        C
    7.380000    2.840560   94.791772        C
    7.380000    2.840560  104.791772        C
    6.149998    4.970987   14.791772        C
    6.149998    4.970987   24.791772        C
    6.149998    4.970987   34.791772        C
    6.149998    4.970987   44.791772        C
    6.149998    4.970987   54.791772        C
    6.149998    4.970987   64.791772        C
    6.149998    4.970987   74.791772        C
    6.149998    4.970987   84.791772        C
    6.149998    4.970987   94.791772        C
    6.149998    4.970987  104.791772        C
    4.919995    7.101414   14.791772        C
    4.919995    7.101414   24.791772        C
    4.919995    7.101414   34.791772        C
    4.919995    7.101414   44.791772        C
    4.919995    7.101414   54.791772        C
    4.919995    7.101414   64.791772        C
    4.919995    7.101414   74.791772        C
    4.919995    7.101414   84.791772        C
    4.919995    7.101414   94.791772        C
    4.919995    7.101414  104.791772        C
    3.690000    9.231828   14.791772        C
    3.690000    9.231828   24.791772        C
    3.690000    9.231828   34.791772        C
    3.690000    9.231828   44.791772        C
    3.690000    9.231828   54.791772        C
    3.690000    9.231828   64.791772        C
    3.690000    9.231828   74.791772        C
    3.690000    9.231828   84.791772        C
    3.690000    9.231828   94.791772        C
    3.690000    9.231828  104.791772        C
    2.459998   11.362255   14.791772        C
    2.459998   11.362255   24.791772        C
    2.459998   11.362255   34.791772        C
    2.459998   11.362255   44.791772        C
    2.459998   11.362255   54.791772        C
    2.459998   11.362255   64.791772        C
    2.459998   11.362255   74.791772        C
    2.459998   11.362255   84.791772        C
    2.459998   11.362255   94.791772        C
    2.459998   11.362255  104.791772        C
   11.070000    0.710147   14.791772        C
   11.070000    0.710147   24.791772        C
   11.070000    0.710147   34.791772        C
   11.070000    0.710147   44.791772        C
   11.070000    0.710147   54.791772        C
   11.070000    0.710147   64.791772        C
   11.070000    0.710147   74.791772        C
   11.070000    0.710147   84.791772        C
   11.070000    0.710147   94.791772        C
   11.070000    0.710147  104.791772        C
    9.840005    2.840560   14.791772        C
    9.840005    2.840560   24.791772        C
    9.840005    2.840560   34.791772        C
    9.840005    2.840560   44.791772        C
    9.840005    2.840560   54.791772        C
    9.840005    2.840560   64.791772        C
    9.840005    2.840560   74.791772        C
    9.840005    2.840560   84.791772        C
    9.840005    2.840560   94.791772        C
    9.840005    2.840560  104.791772        C
    8.610002    4.970987   14.791772        C
    8.610002    4.970987   24.791772        C
    8.610002    4.970987   34.791772        C
    8.610002    4.970987   44.791772        C
    8.610002    4.970987   54.791772        C
    8.610002    4.970987   64.791772        C
    8.610002    4.970987   74.791772        C
    8.610002    4.970987   84.791772        C
    8.610002    4.970987   94.791772        C
    8.610002    4.970987  104.791772        C
    7.380000    7.101414   14.791772        C
    7.380000    7.101414   24.791772        C
    7.380000    7.101414   34.791772        C
    7.380000    7.101414   44.791772        C
    7.380000    7.101414   54.791772        C
    7.380000    7.101414   64.791772        C
    7.380000    7.101414   74.791772        C
    7.380000    7.101414   84.791772        C
    7.380000    7.101414   94.791772        C
    7.380000    7.101414  104.791772        C
    6.150005    9.231828   14.791772        C
    6.150005    9.231828   24.791772        C
    6.150005    9.231828   34.791772        C
    6.150005    9.231828   44.791772        C
    6.150005    9.231828   54.791772        C
    6.150005    9.231828   64.791772        C