Rotated POSCAR by SURFACE card in wt.in by WannierTools
1.0
   14.760000    0.000000    0.000000
   -7.380000   12.782535    0.000000
    0.000000    0.000000   10.000000
C     
    72
Direct
    0.055556    0.111111    0.000000        C
    0.055556    0.277778    0.000000        C
    0.055556    0.444444    0.000000        C
    0.055556    0.611111    0.000000        C
    0.055556    0.777778    0.000000        C
    0.055556    0.944444    0.000000        C
    0.222222    0.111111    0.000000        C
    0.222222    0.277778    0.000000        C
    0.222222    0.444444    0.000000        C
    0.222222    0.611111    0.000000        C
    0.222222    0.777778    0.000000        C
    0.222222    0.944444    0.000000        C
    0.388889    0.111111    0.000000        C
    0.388889    0.277778    0.000000        C
    0.388889    0.444444    0.000000        C
    0.388889    0.611111    0.000000        C
    0.388889    0.777778    0.000000        C
    0.388889    0.944444    0.000000        C
    0.555556    0.111111    0.000000        C
    0.555556    0.277778    0.000000        C
    0.555556    0.444444    0.000000        C
    0.555556    0.611111    0.000000        C
    0.555556    0.777778    0.000000        C
    0.555556    0.944444    0.000000        C
    0.722222    0.111111    0.000000        C
    0.722222    0.277778    0.000000        C
    0.722222    0.444444    0.000000        C
    0.722222    0.611111    0.000000        C
    0.722222    0.777778    0.000000        C
    0.722222    0.944444    0.000000        C
    0.888889    0.111111    0.000000        C
    0.888889    0.277778    0.000000        C
    0.888889    0.444444    0.000000        C
    0.888889    0.611111    0.000000        C
    0.888889    0.777778    0.000000        C
    0.888889    0.944444    0.000000        C
    0.111111    0.055556    0.000000        C
    0.111111    0.222222    0.000000        C
    0.111111    0.388889    0.000000        C
    0.111111    0.555556    0.000000        C
    0.111111    0.722222    0.000000        C
    0.111111    0.888889    0.000000        C
    0.277778    0.055556    0.000000        C
    0.277778    0.222222    0.000000        C
    0.277778    0.388889    0.000000        C
    0.277778    0.555556    0.000000        C
    0.277778    0.722222    0.000000        C
    0.277778    0.888889    0.000000        C
    0.444444    0.055556    0.000000        C
    0.444444    0.222222    0.000000        C
    0.444444    0.388889    0.000000        C
    0.444444    0.555556    0.000000        C
    0.444444    0.722222    0.000000        C
    0.444444    0.888889    0.000000        C
    0.611111    0.055556    0.000000        C
    0.611111    0.222222    0.000000        C
    0.611111    0.388889    0.000000        C
    0.611111    0.555556    0.000000        C
    0.611111    0.722222    0.000000        C
    0.611111    0.888889    0.000000        C
    0.777778    0.055556    0.000000        C
    0.777778    0.222222    0.000000        C
    0.777778    0.388889    0.000000        C
    0.777778    0.555556    0.000000        C
    0.777778    0.722222    0.000000        C
    0.777778    0.888889    0.000000        C
    0.944444    0.055556    0.000000        C
    0.944444    0.222222    0.000000        C
    0.944444    0.388889    0.000000        C
    0.944444    0.555556    0.000000        C
    0.944444    0.722222    0.000000        C
    0.944444    0.888889    0.000000        C
