 C 
 1.0000000000000000
   102.6101188656000147    0.0000000000000000    0.0000000000000000
     0.0000000000000000    2.4684159756000001    0.0000000000000000
     0.0000000000000000    0.0000000000000000   10.0000000000000000
 C  
  96
Cartesian
  1.4251405820000000  0.0000000000000000  5.0000000000000000
  2.8502811650000002  0.0000000000000000  5.0000000000000000
  5.7005622014000004  0.0000000000000000  5.0000000000000000
  7.1257027844000005  0.0000000000000000  5.0000000000000000
  9.9759838207999998  0.0000000000000000  5.0000000000000000
 11.4011244038000008  0.0000000000000000  5.0000000000000000
 14.2514054402000028  0.0000000000000000  5.0000000000000000
 15.6765460232000020  0.0000000000000000  5.0000000000000000
 18.5268270596000022  0.0000000000000000  5.0000000000000000
 19.9519676426000032  0.0000000000000000  5.0000000000000000
 22.8022486790000016  0.0000000000000000  5.0000000000000000
 24.2273892620000026  0.0000000000000000  5.0000000000000000
 27.0776702984000046  0.0000000000000000  5.0000000000000000
 28.5028108814000021  0.0000000000000000  5.0000000000000000
 31.3530919178000040  0.0000000000000000  5.0000000000000000
 32.7782325008000015  0.0000000000000000  5.0000000000000000
 35.6285135371999999  0.0000000000000000  5.0000000000000000
 37.0536541202000009  0.0000000000000000  5.0000000000000000
 39.9039351565999993  0.0000000000000000  5.0000000000000000
 41.3290757396000004  0.0000000000000000  5.0000000000000000
 44.1793567759999988  0.0000000000000000  5.0000000000000000
 45.6044973589999998  0.0000000000000000  5.0000000000000000
 48.4547783953999982  0.0000000000000000  5.0000000000000000
 49.8799189783999992  0.0000000000000000  5.0000000000000000
 52.7302000148000047  0.0000000000000000  5.0000000000000000
 54.1553405978000058  0.0000000000000000  5.0000000000000000
 57.0056216342000042  0.0000000000000000  5.0000000000000000
 58.4307622172000052  0.0000000000000000  5.0000000000000000
 61.2810432536000036  0.0000000000000000  5.0000000000000000
 62.7061838366000046  0.0000000000000000  5.0000000000000000
 65.5564648729999959  0.0000000000000000  5.0000000000000000
 66.9816054559999969  0.0000000000000000  5.0000000000000000
 69.8318864924000025  0.0000000000000000  5.0000000000000000
 71.2570270754000035  0.0000000000000000  5.0000000000000000
 74.1073081118000090  0.0000000000000000  5.0000000000000000
 75.5324486948000100  0.0000000000000000  5.0000000000000000
 78.3827297312000013  0.0000000000000000  5.0000000000000000
 79.8078703142000023  0.0000000000000000  5.0000000000000000
 82.6581513506000078  0.0000000000000000  5.0000000000000000
 84.0832919336000089  0.0000000000000000  5.0000000000000000
 86.9335729700000002  0.0000000000000000  5.0000000000000000
 88.3587135530000012  0.0000000000000000  5.0000000000000000
 91.2089945894000067  0.0000000000000000  5.0000000000000000
 92.6341351724000077  0.0000000000000000  5.0000000000000000
 95.4844162087999990  0.0000000000000000  5.0000000000000000
 96.9095567918000000  0.0000000000000000  5.0000000000000000
 99.7598378282000056  0.0000000000000000  5.0000000000000000
 101.1849784112000066  0.0000000000000000  5.0000000000000000
  0.7125702910000000  1.2342079880000001  5.0000000000000000
  3.5628515190000001  1.2342079880000001  5.0000000000000000
  4.9879919103999999  1.2342079880000001  5.0000000000000000
  7.8382731384000000  1.2342079880000001  5.0000000000000000
  9.2634135298000011  1.2342079880000001  5.0000000000000000
 12.1136947578000012  1.2342079880000001  5.0000000000000000
 13.5388351492000023  1.2342079880000001  5.0000000000000000
 16.3891163772000006  1.2342079880000001  5.0000000000000000
 17.8142567686000000  1.2342079880000001  5.0000000000000000
 20.6645379966000000  1.2342079880000001  5.0000000000000000
 22.0896783879999994  1.2342079880000001  5.0000000000000000
 24.9399596159999994  1.2342079880000001  5.0000000000000000
 26.3651000074000024  1.2342079880000001  5.0000000000000000
 29.2153812354000024  1.2342079880000001  5.0000000000000000
 30.6405216268000018  1.2342079880000001  5.0000000000000000
 33.4908028548000019  1.2342079880000001  5.0000000000000000
 34.9159432462000012  1.2342079880000001  5.0000000000000000
 37.7662244742000013  1.2342079880000001  5.0000000000000000
 39.1913648656000007  1.2342079880000001  5.0000000000000000
 42.0416460936000007  1.2342079880000001  5.0000000000000000
 43.4667864850000001  1.2342079880000001  5.0000000000000000
 46.3170677130000001  1.2342079880000001  5.0000000000000000
 47.7422081043999995  1.2342079880000001  5.0000000000000000
 50.5924893323999996  1.2342079880000001  5.0000000000000000
 52.0176297238000060  1.2342079880000001  5.0000000000000000
 54.8679109518000061  1.2342079880000001  5.0000000000000000
 56.2930513432000055  1.2342079880000001  5.0000000000000000
 59.1433325712000055  1.2342079880000001  5.0000000000000000
 60.5684729626000049  1.2342079880000001  5.0000000000000000
 63.4187541906000050  1.2342079880000001  5.0000000000000000
 64.8438945820000043  1.2342079880000001  5.0000000000000000
 67.6941758100000044  1.2342079880000001  5.0000000000000000
 69.1193162014000109  1.2342079880000001  5.0000000000000000
 71.9695974294000109  1.2342079880000001  5.0000000000000000
 73.3947378208000174  1.2342079880000001  5.0000000000000000
 76.2450190488000175  1.2342079880000001  5.0000000000000000
 77.6701594402000097  1.2342079880000001  5.0000000000000000
 80.5204406682000098  1.2342079880000001  5.0000000000000000
 81.9455810596000163  1.2342079880000001  5.0000000000000000
 84.7958622876000163  1.2342079880000001  5.0000000000000000
 86.2210026790000086  1.2342079880000001  5.0000000000000000
 89.0712839070000086  1.2342079880000001  5.0000000000000000
 90.4964242984000151  1.2342079880000001  5.0000000000000000
 93.3467055264000152  1.2342079880000001  5.0000000000000000
 94.7718459178000074  1.2342079880000001  5.0000000000000000
 97.6221271458000075  1.2342079880000001  5.0000000000000000
 99.0472675372000140  1.2342079880000001  5.0000000000000000
 101.8975487652000140  1.2342079880000001  5.0000000000000000
