POSCAR for slab defined by SURFACE card and Nslab and Vacuum_thickness_in_Angstrom in wt.in by WannierTools
1.0
    9.840000    0.000000    0.000000
   -4.920000    8.521690    0.000000
    0.000000    0.000000  110.583544
C     
   320
Cartesian
   -0.000005    1.420285   14.791772        C
   -0.000005    1.420285   24.791772        C
   -0.000005    1.420285   34.791772        C
   -0.000005    1.420285   44.791772        C
   -0.000005    1.420285   54.791772        C
   -0.000005    1.420285   64.791772        C
   -0.000005    1.420285   74.791772        C
   -0.000005    1.420285   84.791772        C
   -0.000005    1.420285   94.791772        C
   -0.000005    1.420285  104.791772        C
   -1.230005    3.550707   14.791772        C
   -1.230005    3.550707   24.791772        C
   -1.230005    3.550707   34.791772        C
   -1.230005    3.550707   44.791772        C
   -1.230005    3.550707   54.791772        C
   -1.230005    3.550707   64.791772        C
   -1.230005    3.550707   74.791772        C
   -1.230005    3.550707   84.791772        C
   -1.230005    3.550707   94.791772        C
   -1.230005    3.550707  104.791772        C
   -2.460005    5.681130   14.791772        C
   -2.460005    5.681130   24.791772        C
   -2.460005    5.681130   34.791772        C
   -2.460005    5.681130   44.791772        C
   -2.460005    5.681130   54.791772        C
   -2.460005    5.681130   64.791772        C
   -2.460005    5.681130   74.791772        C
   -2.460005    5.681130   84.791772        C
   -2.460005    5.681130   94.791772        C
   -2.460005    5.681130  104.791772        C
   -3.690005    7.811552   14.791772        C
   -3.690005    7.811552   24.791772        C
   -3.690005    7.811552   34.791772        C
   -3.690005    7.811552   44.791772        C
   -3.690005    7.811552   54.791772        C
   -3.690005    7.811552   64.791772        C
   -3.690005    7.811552   74.791772        C
   -3.690005    7.811552   84.791772        C
   -3.690005    7.811552   94.791772        C
   -3.690005    7.811552  104.791772        C
    2.459995    1.420285   14.791772        C
    2.459995    1.420285   24.791772        C
    2.459995    1.420285   34.791772        C
    2.459995    1.420285   44.791772        C
    2.459995    1.420285   54.791772        C
    2.459995    1.420285   64.791772        C
    2.459995    1.420285   74.791772        C
    2.459995    1.420285   84.791772        C
    2.459995    1.420285   94.791772        C
    2.459995    1.420285  104.791772        C
    1.229995    3.550707   14.791772        C
    1.229995    3.550707   24.791772        C
    1.229995    3.550707   34.791772        C
    1.229995    3.550707   44.791772        C
    1.229995    3.550707   54.791772        C
    1.229995    3.550707   64.791772        C
    1.229995    3.550707   74.791772        C
    1.229995    3.550707   84.791772        C
    1.229995    3.550707   94.791772        C
    1.229995    3.550707  104.791772        C
   -0.000005    5.681130   14.791772        C
   -0.000005    5.681130   24.791772        C
   -0.000005    5.681130   34.791772        C
   -0.000005    5.681130   44.791772        C
   -0.000005    5.681130   54.791772        C
   -0.000005    5.681130   64.791772        C
   -0.000005    5.681130   74.791772        C
   -0.000005    5.681130   84.791772        C
   -0.000005    5.681130   94.791772        C
   -0.000005    5.681130  104.791772        C
   -1.230005    7.811552   14.791772        C
   -1.230005    7.811552   24.791772        C
   -1.230005    7.811552   34.791772        C
   -1.230005    7.811552   44.791772        C
   -1.230005    7.811552   54.791772        C
   -1.230005    7.811552   64.791772        C
   -1.230005    7.811552   74.791772        C
   -1.230005    7.811552   84.791772        C
   -1.230005    7.811552   94.791772        C
   -1.230005    7.811552  104.791772        C
    4.919995    1.420285   14.791772        C
    4.919995    1.420285   24.791772        C
    4.919995    1.420285   34.791772        C
    4.919995    1.420285   44.791772        C
    4.919995    1.420285   54.791772        C
    4.919995    1.420285   64.791772        C
    4.919995    1.420285   74.791772        C
    4.919995    1.420285   84.791772        C
    4.919995    1.420285   94.791772        C
    4.919995    1.420285  104.791772        C
    3.689995    3.550707   14.791772        C
    3.689995    3.550707   24.791772        C
    3.689995    3.550707   34.791772        C
    3.689995    3.550707   44.791772        C
    3.689995    3.550707   54.791772        C
    3.689995    3.550707   64.791772        C
    3.689995    3.550707   74.791772        C
    3.689995    3.550707   84.791772        C
    3.689995    3.550707   94.791772        C
    3.689995    3.550707  104.791772        C
    2.459995    5.681130   14.791772        C
    2.459995    5.681130   24.791772        C
    2.459995    5.681130   34.791772        C
    2.459995    5.681130   44.791772        C
    2.459995    5.681130   54.791772        C
    2.459995    5.681130   64.791772        C
    2.459995    5.681130   74.791772        C
    2.459995    5.681130   84.791772        C
    2.459995    5.681130   94.791772        C
    2.459995    5.681130  104.791772        C
    1.229995    7.811552   14.791772        C
    1.229995    7.811552   24.791772        C
    1.229995    7.811552   34.791772        C
    1.229995    7.811552   44.791772        C
    1.229995    7.811552   54.791772        C
    1.229995    7.811552   64.791772        C
    1.229995    7.811552   74.791772        C
    1.229995    7.811552   84.791772        C
    1.229995    7.811552   94.791772        C
    1.229995    7.811552  104.791772        C
    7.379995    1.420285   14.791772        C
    7.379995    1.420285   24.791772        C
    7.379995    1.420285   34.791772        C
    7.379995    1.420285   44.791772        C
    7.379995    1.420285   54.791772        C
    7.379995    1.420285   64.791772        C
    7.379995    1.420285   74.791772        C
    7.379995    1.420285   84.791772        C
    7.379995    1.420285   94.791772        C
    7.379995    1.420285  104.791772        C
    6.149995    3.550707   14.791772        C
    6.149995    3.550707   24.791772        C
    6.149995    3.550707   34.791772        C
    6.149995    3.550707   44.791772        C
    6.149995    3.550707   54.791772        C
    6.149995    3.550707   64.791772        C
    6.149995    3.550707   74.791772        C
    6.149995    3.550707   84.791772        C
    6.149995    3.550707   94.791772        C
    6.149995    3.550707  104.791772        C
    4.919995    5.681130   14.791772        C
    4.919995    5.681130   24.791772        C
    4.919995    5.681130   34.791772        C
    4.919995    5.681130   44.791772        C
    4.919995    5.681130   54.791772        C
    4.919995    5.681130   64.791772        C
    4.919995    5.681130   74.791772        C
    4.919995    5.681130   84.791772        C
    4.919995    5.681130   94.791772        C
    4.919995    5.681130  104.791772        C
    3.689995    7.811552   14.791772        C
    3.689995    7.811552   24.791772        C
    3.689995    7.811552   34.791772        C
    3.689995    7.811552   44.791772        C
    3.689995    7.811552   54.791772        C
    3.689995    7.811552   64.791772        C
    3.689995    7.811552   74.791772        C
    3.689995    7.811552   84.791772        C
    3.689995    7.811552   94.791772        C
    3.689995    7.811552  104.791772        C
    1.230005    0.710138   14.791772        C
    1.230005    0.710138   24.791772        C
    1.230005    0.710138   34.791772        C
    1.230005    0.710138   44.791772        C
    1.230005    0.710138   54.791772        C
    1.230005    0.710138   64.791772        C
    1.230005    0.710138   74.791772        C
    1.230005    0.710138   84.791772        C
    1.230005    0.710138   94.791772        C
    1.230005    0.710138  104.791772        C
    0.000005    2.840560   14.791772        C
    0.000005    2.840560   24.791772        C
    0.000005    2.840560   34.791772        C
    0.000005    2.840560   44.791772        C
    0.000005    2.840560   54.791772        C
    0.000005    2.840560   64.791772        C
    0.000005    2.840560   74.791772        C
    0.000005    2.840560   84.791772        C
    0.000005    2.840560   94.791772        C
    0.000005    2.840560  104.791772        C
   -1.229995    4.970983   14.791772        C
   -1.229995    4.970983   24.791772        C
   -1.229995    4.970983   34.791772        C
   -1.229995    4.970983   44.791772        C
   -1.229995    4.970983   54.791772        C
   -1.229995    4.970983   64.791772        C
   -1.229995    4.970983   74.791772        C
   -1.229995    4.970983   84.791772        C
   -1.229995    4.970983   94.791772        C
   -1.229995    4.970983  104.791772        C
   -2.459995    7.101405   14.791772        C
   -2.459995    7.101405   24.791772        C
   -2.459995    7.101405   34.791772        C
   -2.459995    7.101405   44.791772        C
   -2.459995    7.101405   54.791772        C
   -2.459995    7.101405   64.791772        C
   -2.459995    7.101405   74.791772        C
   -2.459995    7.101405   84.791772        C
   -2.459995    7.101405   94.791772        C
   -2.459995    7.101405  104.791772        C
    3.690005    0.710138   14.791772        C
    3.690005    0.710138   24.791772        C
    3.690005    0.710138   34.791772        C
    3.690005    0.710138   44.791772        C
    3.690005    0.710138   54.791772        C
    3.690005    0.710138   64.791772        C
    3.690005    0.710138   74.791772        C
    3.690005    0.710138   84.791772        C
    3.690005    0.710138   94.791772        C
    3.690005    0.710138  104.791772        C
    2.460005    2.840560   14.791772        C
    2.460005    2.840560   24.791772        C
    2.460005    2.840560   34.791772        C
    2.460005    2.840560   44.791772        C
    2.460005    2.840560   54.791772        C
    2.460005    2.840560   64.791772        C
    2.460005    2.840560   74.791772        C
    2.460005    2.840560   84.791772        C
    2.460005    2.840560   94.791772        C
    2.460005    2.840560  104.791772        C
    1.230005    4.970983   14.791772        C
    1.230005    4.970983   24.791772        C
    1.230005    4.970983   34.791772        C
    1.230005    4.970983   44.791772        C
    1.230005    4.970983   54.791772        C
    1.230005    4.970983   64.791772        C
    1.230005    4.970983   74.791772        C
    1.230005    4.970983   84.791772        C
    1.230005    4.970983   94.791772        C
    1.230005    4.970983  104.791772        C
    0.000005    7.101405   14.791772        C
    0.000005    7.101405   24.791772        C
    0.000005    7.101405   34.791772        C
    0.000005    7.101405   44.791772        C
    0.000005    7.101405   54.791772        C
    0.000005    7.101405   64.791772        C
    0.000005    7.101405   74.791772        C
    0.000005    7.101405   84.791772        C
    0.000005    7.101405   94.791772        C
    0.000005    7.101405  104.791772        C
    6.150005    0.710138   14.791772        C
    6.150005    0.710138   24.791772        C
    6.150005    0.710138   34.791772        C
    6.150005    0.710138   44.791772        C
    6.150005    0.710138   54.791772        C
    6.150005    0.710138   64.791772        C
    6.150005    0.710138   74.791772        C
    6.150005    0.710138   84.791772        C
    6.150005    0.710138   94.791772        C
    6.150005    0.710138  104.791772        C
    4.920005    2.840560   14.791772        C
    4.920005    2.840560   24.791772        C
    4.920005    2.840560   34.791772        C
    4.920005    2.840560   44.791772        C
    4.920005    2.840560   54.791772        C
    4.920005    2.840560   64.791772        C
    4.920005    2.840560   74.791772        C
    4.920005    2.840560   84.791772        C
    4.920005    2.840560   94.791772        C
    4.920005    2.840560  104.791772        C
    3.690005    4.970983   14.791772        C
    3.690005    4.970983   24.791772        C
    3.690005    4.970983   34.791772        C
    3.690005    4.970983   44.791772        C
    3.690005    4.970983   54.791772        C
    3.690005    4.970983   64.791772        C
    3.690005    4.970983   74.791772        C
    3.690005    4.970983   84.791772        C
    3.690005    4.970983   94.791772        C
    3.690005    4.970983  104.791772        C
    2.460005    7.101405   14.791772        C
    2.460005    7.101405   24.791772        C
    2.460005    7.101405   34.791772        C
    2.460005    7.101405   44.791772        C
    2.460005    7.101405   54.791772        C
    2.460005    7.101405   64.791772        C
    2.460005    7.101405   74.791772        C
    2.460005    7.101405   84.791772        C
    2.460005    7.101405   94.791772        C
    2.460005    7.101405  104.791772        C
    8.610005    0.710138   14.791772        C
    8.610005    0.710138   24.791772        C
    8.610005    0.710138   34.791772        C
    8.610005    0.710138   44.791772        C
    8.610005    0.710138   54.791772        C
    8.610005    0.710138   64.791772        C
    8.610005    0.710138   74.791772        C
    8.610005    0.710138   84.791772        C
    8.610005    0.710138   94.791772        C
    8.610005    0.710138  104.791772        C
    7.380005    2.840560   14.791772        C
    7.380005    2.840560   24.791772        C
    7.380005    2.840560   34.791772        C
    7.380005    2.840560   44.791772        C
    7.380005    2.840560   54.791772        C
    7.380005    2.840560   64.791772        C
    7.380005    2.840560   74.791772        C
    7.380005    2.840560   84.791772        C
    7.380005    2.840560   94.791772        C
    7.380005    2.840560  104.791772        C
    6.150005    4.970983   14.791772        C
    6.150005    4.970983   24.791772        C
    6.150005    4.970983   34.791772        C
    6.150005    4.970983   44.791772        C
    6.150005    4.970983   54.791772        C
    6.150005    4.970983   64.791772        C
    6.150005    4.970983   74.791772        C
    6.150005    4.970983   84.791772        C
    6.150005    4.970983   94.791772        C
    6.150005    4.970983  104.791772        C
    4.920005    7.101405   14.791772        C
    4.920005    7.101405   24.791772        C
    4.920005    7.101405   34.791772        C
    4.920005    7.101405   44.791772        C
    4.920005    7.101405   54.791772        C
    4.920005    7.101405   64.791772        C
    4.920005    7.101405   74.791772        C
    4.920005    7.101405   84.791772        C
    4.920005    7.101405   94.791772        C
    4.920005    7.101405  104.791772        C
