 C 
 1.0000000000000000
   495.9489078504000190    0.0000000000000000    0.0000000000000000
     0.0000000000000000   71.5840632924000033    0.0000000000000000
     0.0000000000000000    0.0000000000000000   10.0000000000000000
 C  
 26912
Cartesian
  1.4251405811290758  0.0000000000000000  3.3250001100000000
  2.8502811665335730  0.0000000000000000  3.3250001100000000
  5.7005622005290757  0.0000000000000000  3.3250001100000000
  7.1257027859335729  0.0000000000000000  3.3250001100000000
  9.9759838199290769  0.0000000000000000  3.3250001100000000
 11.4011244053335741  0.0000000000000000  3.3250001100000000
 14.2514054393290781  0.0000000000000000  3.3250001100000000
 15.6765460247335753  0.0000000000000000  3.3250001100000000
 18.5268270587290758  0.0000000000000000  3.3250001100000000
 19.9519676441335747  0.0000000000000000  3.3250001100000000
 22.8022486781290752  0.0000000000000000  3.3250001100000000
 24.2273892635335741  0.0000000000000000  3.3250001100000000
 27.0776702975290782  0.0000000000000000  3.3250001100000000
 28.5028108829335771  0.0000000000000000  3.3250001100000000
 31.3530919169290776  0.0000000000000000  3.3250001100000000
 32.7782325023335730  0.0000000000000000  3.3250001100000000
 35.6285135363290806  0.0000000000000000  3.3250001100000000
 37.0536541217335724  0.0000000000000000  3.3250001100000000
 39.9039351557290800  0.0000000000000000  3.3250001100000000
 41.3290757411335719  0.0000000000000000  3.3250001100000000
 44.1793567751290794  0.0000000000000000  3.3250001100000000
 45.6044973605335713  0.0000000000000000  3.3250001100000000
 48.4547783945290789  0.0000000000000000  3.3250001100000000
 49.8799189799335707  0.0000000000000000  3.3250001100000000
 52.7302000139290854  0.0000000000000000  3.3250001100000000
 54.1553405993335772  0.0000000000000000  3.3250001100000000
 57.0056216333290848  0.0000000000000000  3.3250001100000000
 58.4307622187335767  0.0000000000000000  3.3250001100000000
 61.2810432527290843  0.0000000000000000  3.3250001100000000
 62.7061838381335761  0.0000000000000000  3.3250001100000000
 65.5564648721290695  0.0000000000000000  3.3250001100000000
 66.9816054575335755  0.0000000000000000  3.3250001100000000
 69.8318864915290760  0.0000000000000000  3.3250001100000000
 71.2570270769335821  0.0000000000000000  3.3250001100000000
 74.1073081109290825  0.0000000000000000  3.3250001100000000
 75.5324486963335886  0.0000000000000000  3.3250001100000000
 78.3827297303290749  0.0000000000000000  3.3250001100000000
 79.8078703157335809  0.0000000000000000  3.3250001100000000
 82.6581513497290814  0.0000000000000000  3.3250001100000000
 84.0832919351335875  0.0000000000000000  3.3250001100000000
 86.9335729691290737  0.0000000000000000  3.3250001100000000
 88.3587135545335798  0.0000000000000000  3.3250001100000000
 91.2089945885290803  0.0000000000000000  3.3250001100000000
 92.6341351739335863  0.0000000000000000  3.3250001100000000
 95.4844162079290726  0.0000000000000000  3.3250001100000000
 96.9095567933335786  0.0000000000000000  3.3250001100000000
 99.7598378273290791  0.0000000000000000  3.3250001100000000
 101.1849784127335852  0.0000000000000000  3.3250001100000000
 104.0352594467290857  0.0000000000000000  3.3250001100000000
 105.4604000321335917  0.0000000000000000  3.3250001100000000
 108.3106810661290780  0.0000000000000000  3.3250001100000000
 109.7358216515335840  0.0000000000000000  3.3250001100000000
 112.5861026855290845  0.0000000000000000  3.3250001100000000
 114.0112432709335906  0.0000000000000000  3.3250001100000000
 116.8615243049290768  0.0000000000000000  3.3250001100000000
 118.2866648903335829  0.0000000000000000  3.3250001100000000
 121.1369459243290834  0.0000000000000000  3.3250001100000000
 122.5620865097335894  0.0000000000000000  3.3250001100000000
 125.4123675437290757  0.0000000000000000  3.3250001100000000
 126.8375081291335817  0.0000000000000000  3.3250001100000000
 129.6877891631290822  0.0000000000000000  3.3250001100000000
 131.1129297485335599  0.0000000000000000  3.3250001100000000
 133.9632107825291030  0.0000000000000000  3.3250001100000000
 135.3883513679335806  0.0000000000000000  3.3250001100000000
 138.2386324019290953  0.0000000000000000  3.3250001100000000
 139.6637729873335729  0.0000000000000000  3.3250001100000000
 142.5140540213290876  0.0000000000000000  3.3250001100000000
 143.9391946067335653  0.0000000000000000  3.3250001100000000
 146.7894756407291084  0.0000000000000000  3.3250001100000000
 148.2146162261335860  0.0000000000000000  3.3250001100000000
 151.0648972601291007  0.0000000000000000  3.3250001100000000
 152.4900378455335783  0.0000000000000000  3.3250001100000000
 155.3403188795290930  0.0000000000000000  3.3250001100000000
 156.7654594649335706  0.0000000000000000  3.3250001100000000
 159.6157404989290853  0.0000000000000000  3.3250001100000000
 161.0408810843335630  0.0000000000000000  3.3250001100000000
 163.8911621183291061  0.0000000000000000  3.3250001100000000
 165.3163027037335837  0.0000000000000000  3.3250001100000000
 168.1665837377290984  0.0000000000000000  3.3250001100000000
 169.5917243231335760  0.0000000000000000  3.3250001100000000
 172.4420053571290907  0.0000000000000000  3.3250001100000000
 173.8671459425335684  0.0000000000000000  3.3250001100000000
 176.7174269765291115  0.0000000000000000  3.3250001100000000
 178.1425675619335891  0.0000000000000000  3.3250001100000000
 180.9928485959291038  0.0000000000000000  3.3250001100000000
 182.4179891813335814  0.0000000000000000  3.3250001100000000
 185.2682702153290961  0.0000000000000000  3.3250001100000000
 186.6934108007335738  0.0000000000000000  3.3250001100000000
 189.5436918347290884  0.0000000000000000  3.3250001100000000
 190.9688324201335661  0.0000000000000000  3.3250001100000000
 193.8191134541291092  0.0000000000000000  3.3250001100000000
 195.2442540395335868  0.0000000000000000  3.3250001100000000
 198.0945350735291015  0.0000000000000000  3.3250001100000000
 199.5196756589335791  0.0000000000000000  3.3250001100000000
 202.3699566929290938  0.0000000000000000  3.3250001100000000
 203.7950972783335715  0.0000000000000000  3.3250001100000000
 206.6453783123291146  0.0000000000000000  3.3250001100000000
 208.0705188977335922  0.0000000000000000  3.3250001100000000
 210.9207999317291069  0.0000000000000000  3.3250001100000000
 212.3459405171335845  0.0000000000000000  3.3250001100000000
 215.1962215511290992  0.0000000000000000  3.3250001100000000
 216.6213621365335769  0.0000000000000000  3.3250001100000000
 219.4716431705290915  0.0000000000000000  3.3250001100000000
 220.8967837559335692  0.0000000000000000  3.3250001100000000
 223.7470647899291123  0.0000000000000000  3.3250001100000000
 225.1722053753335899  0.0000000000000000  3.3250001100000000
 228.0224864093291046  0.0000000000000000  3.3250001100000000
 229.4476269947335823  0.0000000000000000  3.3250001100000000
 232.2979080287290969  0.0000000000000000  3.3250001100000000
 233.7230486141335746  0.0000000000000000  3.3250001100000000
 236.5733296481290893  0.0000000000000000  3.3250001100000000
 237.9984702335335669  0.0000000000000000  3.3250001100000000
 240.8487512675291100  0.0000000000000000  3.3250001100000000
 242.2738918529335876  0.0000000000000000  3.3250001100000000
 245.1241728869291023  0.0000000000000000  3.3250001100000000
 246.5493134723335800  0.0000000000000000  3.3250001100000000
 249.3995945063290947  0.0000000000000000  3.3250001100000000
 250.8247350917335723  0.0000000000000000  3.3250001100000000
 253.6750161257291154  0.0000000000000000  3.3250001100000000
 255.1001567111335930  0.0000000000000000  3.3250001100000000
 257.9504377451290793  0.0000000000000000  3.3250001100000000
 259.3755783305335854  0.0000000000000000  3.3250001100000000
 262.2258593645291285  0.0000000000000000  3.3250001100000000
 263.6509999499336345  0.0000000000000000  3.3250001100000000
 266.5012809839291208  0.0000000000000000  3.3250001100000000
 267.9264215693336268  0.0000000000000000  3.3250001100000000
 270.7767026033291131  0.0000000000000000  3.3250001100000000
 272.2018431887336192  0.0000000000000000  3.3250001100000000
 275.0521242227291054  0.0000000000000000  3.3250001100000000
 276.4772648081336115  0.0000000000000000  3.3250001100000000
 279.3275458421290978  0.0000000000000000  3.3250001100000000
 280.7526864275336038  0.0000000000000000  3.3250001100000000
 283.6029674615290901  0.0000000000000000  3.3250001100000000
 285.0281080469335961  0.0000000000000000  3.3250001100000000
 287.8783890809290824  0.0000000000000000  3.3250001100000000
 289.3035296663335885  0.0000000000000000  3.3250001100000000
 292.1538107003291316  0.0000000000000000  3.3250001100000000
 293.5789512857336376  0.0000000000000000  3.3250001100000000
 296.4292323197291239  0.0000000000000000  3.3250001100000000
 297.8543729051336300  0.0000000000000000  3.3250001100000000
 300.7046539391291162  0.0000000000000000  3.3250001100000000
 302.1297945245336223  0.0000000000000000  3.3250001100000000
 304.9800755585291085  0.0000000000000000  3.3250001100000000
 306.4052161439336146  0.0000000000000000  3.3250001100000000
 309.2554971779291009  0.0000000000000000  3.3250001100000000
 310.6806377633336069  0.0000000000000000  3.3250001100000000
 313.5309187973290932  0.0000000000000000  3.3250001100000000
 314.9560593827335993  0.0000000000000000  3.3250001100000000
 317.8063404167290855  0.0000000000000000  3.3250001100000000
 319.2314810021335916  0.0000000000000000  3.3250001100000000
 322.0817620361291347  0.0000000000000000  3.3250001100000000
 323.5069026215336407  0.0000000000000000  3.3250001100000000
 326.3571836555291270  0.0000000000000000  3.3250001100000000
 327.7823242409336331  0.0000000000000000  3.3250001100000000
 330.6326052749291193  0.0000000000000000  3.3250001100000000
 332.0577458603336254  0.0000000000000000  3.3250001100000000
 334.9080268943291117  0.0000000000000000  3.3250001100000000
 336.3331674797336177  0.0000000000000000  3.3250001100000000
 339.1834485137291040  0.0000000000000000  3.3250001100000000
 340.6085890991336100  0.0000000000000000  3.3250001100000000
 343.4588701331290963  0.0000000000000000  3.3250001100000000
 344.8840107185336024  0.0000000000000000  3.3250001100000000
 347.7342917525290886  0.0000000000000000  3.3250001100000000
 349.1594323379335947  0.0000000000000000  3.3250001100000000
 352.0097133719291378  0.0000000000000000  3.3250001100000000
 353.4348539573336438  0.0000000000000000  3.3250001100000000
 356.2851349913291301  0.0000000000000000  3.3250001100000000
 357.7102755767336362  0.0000000000000000  3.3250001100000000
 360.5605566107291224  0.0000000000000000  3.3250001100000000
 361.9856971961336285  0.0000000000000000  3.3250001100000000
 364.8359782301291148  0.0000000000000000  3.3250001100000000
 366.2611188155336208  0.0000000000000000  3.3250001100000000
 369.1113998495291071  0.0000000000000000  3.3250001100000000
 370.5365404349336131  0.0000000000000000  3.3250001100000000
 373.3868214689290994  0.0000000000000000  3.3250001100000000
 374.8119620543336055  0.0000000000000000  3.3250001100000000
 377.6622430883290917  0.0000000000000000  3.3250001100000000
 379.0873836737335978  0.0000000000000000  3.3250001100000000
 381.9376647077291409  0.0000000000000000  3.3250001100000000
 383.3628052931336470  0.0000000000000000  3.3250001100000000
 386.2130863271291332  0.0000000000000000  3.3250001100000000
 387.6382269125336393  0.0000000000000000  3.3250001100000000
 390.4885079465291255  0.0000000000000000  3.3250001100000000
 391.9136485319336316  0.0000000000000000  3.3250001100000000
 394.7639295659291179  0.0000000000000000  3.3250001100000000
 396.1890701513336239  0.0000000000000000  3.3250001100000000
 399.0393511853291102  0.0000000000000000  3.3250001100000000
 400.4644917707336162  0.0000000000000000  3.3250001100000000
 403.3147728047291025  0.0000000000000000  3.3250001100000000
 404.7399133901336086  0.0000000000000000  3.3250001100000000
 407.5901944241290948  0.0000000000000000  3.3250001100000000
 409.0153350095336009  0.0000000000000000  3.3250001100000000
 411.8656160435291440  0.0000000000000000  3.3250001100000000
 413.2907566289336501  0.0000000000000000  3.3250001100000000
 416.1410376629291363  0.0000000000000000  3.3250001100000000
 417.5661782483336424  0.0000000000000000  3.3250001100000000
 420.4164592823291287  0.0000000000000000  3.3250001100000000
 421.8415998677336347  0.0000000000000000  3.3250001100000000
 424.6918809017291210  0.0000000000000000  3.3250001100000000
 426.1170214871336270  0.0000000000000000  3.3250001100000000
 428.9673025211291133  0.0000000000000000  3.3250001100000000
 430.3924431065336194  0.0000000000000000  3.3250001100000000
 433.2427241405291056  0.0000000000000000  3.3250001100000000
 434.6678647259336117  0.0000000000000000  3.3250001100000000
 437.5181457599290979  0.0000000000000000  3.3250001100000000
 438.9432863453336040  0.0000000000000000  3.3250001100000000
 441.7935673793290903  0.0000000000000000  3.3250001100000000
 443.2187079647335963  0.0000000000000000  3.3250001100000000
 446.0689889987291394  0.0000000000000000  3.3250001100000000
 447.4941295841336455  0.0000000000000000  3.3250001100000000
 450.3444106181291318  0.0000000000000000  3.3250001100000000
 451.7695512035336378  0.0000000000000000  3.3250001100000000
 454.6198322375291241  0.0000000000000000  3.3250001100000000
 456.0449728229336301  0.0000000000000000  3.3250001100000000
 458.8952538569291164  0.0000000000000000  3.3250001100000000
 460.3203944423336225  0.0000000000000000  3.3250001100000000
 463.1706754763291087  0.0000000000000000  3.3250001100000000
 464.5958160617336148  0.0000000000000000  3.3250001100000000
 467.4460970957291011  0.0000000000000000  3.3250001100000000
 468.8712376811336071  0.0000000000000000  3.3250001100000000
 471.7215187151290934  0.0000000000000000  3.3250001100000000
 473.1466593005335994  0.0000000000000000  3.3250001100000000
 475.9969403345291425  0.0000000000000000  3.3250001100000000
 477.4220809199336486  0.0000000000000000  3.3250001100000000
 480.2723619539291349  0.0000000000000000  3.3250001100000000
 481.6975025393336409  0.0000000000000000  3.3250001100000000
 484.5477835733291272  0.0000000000000000  3.3250001100000000
 485.9729241587336332  0.0000000000000000  3.3250001100000000
 488.8232051927291195  0.0000000000000000  3.3250001100000000
 490.2483457781336256  0.0000000000000000  3.3250001100000000
 493.0986268121291118  0.0000000000000000  3.3250001100000000
 494.5237673975336179  0.0000000000000000  3.3250001100000000
  0.7125702927022486  1.2342079878000001  3.3250001100000000
  3.5628515190917245  1.2342079878000001  3.3250001100000000
  4.9879919121022489  1.2342079878000001  3.3250001100000000
  7.8382731384917248  1.2342079878000001  3.3250001100000000
  9.2634135315022483  1.2342079878000001  3.3250001100000000
 12.1136947578917251  1.2342079878000001  3.3250001100000000
 13.5388351509022513  1.2342079878000001  3.3250001100000000
 16.3891163772917281  1.2342079878000001  3.3250001100000000
 17.8142567703022507  1.2342079878000001  3.3250001100000000
 20.6645379966917275  1.2342079878000001  3.3250001100000000
 22.0896783897022502  1.2342079878000001  3.3250001100000000
 24.9399596160917270  1.2342079878000001  3.3250001100000000
 26.3651000091022532  1.2342079878000001  3.3250001100000000
 29.2153812354917264  1.2342079878000001  3.3250001100000000
 30.6405216285022526  1.2342079878000001  3.3250001100000000
 33.4908028548917258  1.2342079878000001  3.3250001100000000
 34.9159432479022485  1.2342079878000001  3.3250001100000000
 37.7662244742917252  1.2342079878000001  3.3250001100000000
 39.1913648673022479  1.2342079878000001  3.3250001100000000
 42.0416460936917247  1.2342079878000001  3.3250001100000000
 43.4667864867022473  1.2342079878000001  3.3250001100000000
 46.3170677130917241  1.2342079878000001  3.3250001100000000
 47.7422081061022467  1.2342079878000001  3.3250001100000000
 50.5924893324917235  1.2342079878000001  3.3250001100000000
 52.0176297255022533  1.2342079878000001  3.3250001100000000
 54.8679109518917301  1.2342079878000001  3.3250001100000000
 56.2930513449022527  1.2342079878000001  3.3250001100000000
 59.1433325712917295  1.2342079878000001  3.3250001100000000
 60.5684729643022521  1.2342079878000001  3.3250001100000000
 63.4187541906917289  1.2342079878000001  3.3250001100000000
 64.8438945837022516  1.2342079878000001  3.3250001100000000
 67.6941758100917212  1.2342079878000001  3.3250001100000000
 69.1193162031022581  1.2342079878000001  3.3250001100000000
 71.9695974294917278  1.2342079878000001  3.3250001100000000
 73.3947378225022646  1.2342079878000001  3.3250001100000000
 76.2450190488917343  1.2342079878000001  3.3250001100000000
 77.6701594419022570  1.2342079878000001  3.3250001100000000
 80.5204406682917266  1.2342079878000001  3.3250001100000000
 81.9455810613022635  1.2342079878000001  3.3250001100000000
 84.7958622876917332  1.2342079878000001  3.3250001100000000
 86.2210026807022558  1.2342079878000001  3.3250001100000000
 89.0712839070917255  1.2342079878000001  3.3250001100000000
 90.4964243001022624  1.2342079878000001  3.3250001100000000
 93.3467055264917320  1.2342079878000001  3.3250001100000000
 94.7718459195022547  1.2342079878000001  3.3250001100000000
 97.6221271458917244  1.2342079878000001  3.3250001100000000
 99.0472675389022612  1.2342079878000001  3.3250001100000000
 101.8975487652917309  1.2342079878000001  3.3250001100000000
 103.3226891583022677  1.2342079878000001  3.3250001100000000
 106.1729703846917374  1.2342079878000001  3.3250001100000000
 107.5981107777022601  1.2342079878000001  3.3250001100000000
 110.4483920040917297  1.2342079878000001  3.3250001100000000
 111.8735323971022666  1.2342079878000001  3.3250001100000000
 114.7238136234917363  1.2342079878000001  3.3250001100000000
 116.1489540165022589  1.2342079878000001  3.3250001100000000
 118.9992352428917286  1.2342079878000001  3.3250001100000000
 120.4243756359022655  1.2342079878000001  3.3250001100000000
 123.2746568622917351  1.2342079878000001  3.3250001100000000
 124.6997972553022578  1.2342079878000001  3.3250001100000000
 127.5500784816917275  1.2342079878000001  3.3250001100000000
 128.9752188747022501  1.2342079878000001  3.3250001100000000
 131.8255001010917340  1.2342079878000001  3.3250001100000000
 133.2506404941022708  1.2342079878000001  3.3250001100000000
 136.1009217204917547  1.2342079878000001  3.3250001100000000
 137.5260621135022632  1.2342079878000001  3.3250001100000000
 140.3763433398917471  1.2342079878000001  3.3250001100000000
 141.8014837329022555  1.2342079878000001  3.3250001100000000
 144.6517649592917394  1.2342079878000001  3.3250001100000000
 146.0769053523022762  1.2342079878000001  3.3250001100000000
 148.9271865786917601  1.2342079878000001  3.3250001100000000
 150.3523269717022686  1.2342079878000001  3.3250001100000000
 153.2026081980917525  1.2342079878000001  3.3250001100000000
 154.6277485911022609  1.2342079878000001  3.3250001100000000
 157.4780298174917448  1.2342079878000001  3.3250001100000000
 158.9031702105022532  1.2342079878000001  3.3250001100000000
 161.7534514368917371  1.2342079878000001  3.3250001100000000
 163.1785918299022740  1.2342079878000001  3.3250001100000000
 166.0288730562917578  1.2342079878000001  3.3250001100000000
 167.4540134493022663  1.2342079878000001  3.3250001100000000
 170.3042946756917502  1.2342079878000001  3.3250001100000000
 171.7294350687022586  1.2342079878000001  3.3250001100000000
 174.5797162950917425  1.2342079878000001  3.3250001100000000
 176.0048566881022793  1.2342079878000001  3.3250001100000000
 178.8551379144917632  1.2342079878000001  3.3250001100000000
 180.2802783075022717  1.2342079878000001  3.3250001100000000
 183.1305595338917556  1.2342079878000001  3.3250001100000000
 184.5556999269022640  1.2342079878000001  3.3250001100000000
 187.4059811532917479  1.2342079878000001  3.3250001100000000
 188.8311215463022563  1.2342079878000001  3.3250001100000000
 191.6814027726917402  1.2342079878000001  3.3250001100000000
 193.1065431657022771  1.2342079878000001  3.3250001100000000
 195.9568243920917610  1.2342079878000001  3.3250001100000000
 197.3819647851022694  1.2342079878000001  3.3250001100000000
 200.2322460114917533  1.2342079878000001  3.3250001100000000
 201.6573864045022617  1.2342079878000001  3.3250001100000000
 204.5076676308917456  1.2342079878000001  3.3250001100000000
 205.9328080239022825  1.2342079878000001  3.3250001100000000
 208.7830892502917663  1.2342079878000001  3.3250001100000000
 210.2082296433022748  1.2342079878000001  3.3250001100000000
 213.0585108696917587  1.2342079878000001  3.3250001100000000
 214.4836512627022671  1.2342079878000001  3.3250001100000000
 217.3339324890917510  1.2342079878000001  3.3250001100000000
 218.7590728821022594  1.2342079878000001  3.3250001100000000
 221.6093541084917433  1.2342079878000001  3.3250001100000000
 223.0344945015022802  1.2342079878000001  3.3250001100000000
 225.8847757278917641  1.2342079878000001  3.3250001100000000
 227.3099161209022725  1.2342079878000001  3.3250001100000000
 230.1601973472917564  1.2342079878000001  3.3250001100000000
 231.5853377403022648  1.2342079878000001  3.3250001100000000
 234.4356189666917487  1.2342079878000001  3.3250001100000000
 235.8607593597022571  1.2342079878000001  3.3250001100000000
 238.7110405860917410  1.2342079878000001  3.3250001100000000
 240.1361809791022779  1.2342079878000001  3.3250001100000000
 242.9864622054917618  1.2342079878000001  3.3250001100000000
 244.4116025985022702  1.2342079878000001  3.3250001100000000
 247.2618838248917541  1.2342079878000001  3.3250001100000000
 248.6870242179022625  1.2342079878000001  3.3250001100000000
 251.5373054442917464  1.2342079878000001  3.3250001100000000
 252.9624458373022833  1.2342079878000001  3.3250001100000000
 255.8127270636917672  1.2342079878000001  3.3250001100000000
 257.2378674567022472  1.2342079878000001  3.3250001100000000
 260.0881486830917311  1.2342079878000001  3.3250001100000000
 261.5132890761022963  1.2342079878000001  3.3250001100000000
 264.3635703024917802  1.2342079878000001  3.3250001100000000
 265.7887106955022887  1.2342079878000001  3.3250001100000000
 268.6389919218917726  1.2342079878000001  3.3250001100000000
 270.0641323149022810  1.2342079878000001  3.3250001100000000
 272.9144135412917649  1.2342079878000001  3.3250001100000000
 274.3395539343022733  1.2342079878000001  3.3250001100000000
 277.1898351606917572  1.2342079878000001  3.3250001100000000
 278.6149755537022656  1.2342079878000001  3.3250001100000000
 281.4652567800917495  1.2342079878000001  3.3250001100000000
 282.8903971731022580  1.2342079878000001  3.3250001100000000
 285.7406783994917419  1.2342079878000001  3.3250001100000000
 287.1658187925022503  1.2342079878000001  3.3250001100000000
 290.0161000188917342  1.2342079878000001  3.3250001100000000
 291.4412404119022995  1.2342079878000001  3.3250001100000000
 294.2915216382917833  1.2342079878000001  3.3250001100000000
 295.7166620313022918  1.2342079878000001  3.3250001100000000
 298.5669432576917757  1.2342079878000001  3.3250001100000000
 299.9920836507022841  1.2342079878000001  3.3250001100000000
 302.8423648770917680  1.2342079878000001  3.3250001100000000
 304.2675052701022764  1.2342079878000001  3.3250001100000000
 307.1177864964917603  1.2342079878000001  3.3250001100000000
 308.5429268895022688  1.2342079878000001  3.3250001100000000
 311.3932081158917526  1.2342079878000001  3.3250001100000000
 312.8183485089022611  1.2342079878000001  3.3250001100000000
 315.6686297352917450  1.2342079878000001  3.3250001100000000
 317.0937701283022534  1.2342079878000001  3.3250001100000000
 319.9440513546917373  1.2342079878000001  3.3250001100000000
 321.3691917477023026  1.2342079878000001  3.3250001100000000
 324.2194729740917865  1.2342079878000001  3.3250001100000000
 325.6446133671022949  1.2342079878000001  3.3250001100000000
 328.4948945934917788  1.2342079878000001  3.3250001100000000
 329.9200349865022872  1.2342079878000001  3.3250001100000000
 332.7703162128917711  1.2342079878000001  3.3250001100000000
 334.1954566059022795  1.2342079878000001  3.3250001100000000
 337.0457378322917634  1.2342079878000001  3.3250001100000000
 338.4708782253022719  1.2342079878000001  3.3250001100000000
 341.3211594516917557  1.2342079878000001  3.3250001100000000
 342.7462998447022642  1.2342079878000001  3.3250001100000000
 345.5965810710917481  1.2342079878000001  3.3250001100000000
 347.0217214641022565  1.2342079878000001  3.3250001100000000
 349.8720026904917404  1.2342079878000001  3.3250001100000000
 351.2971430835023057  1.2342079878000001  3.3250001100000000
 354.1474243098917896  1.2342079878000001  3.3250001100000000
 355.5725647029022980  1.2342079878000001  3.3250001100000000
 358.4228459292917819  1.2342079878000001  3.3250001100000000
 359.8479863223022903  1.2342079878000001  3.3250001100000000
 362.6982675486917742  1.2342079878000001  3.3250001100000000
 364.1234079417022826  1.2342079878000001  3.3250001100000000
 366.9736891680917665  1.2342079878000001  3.3250001100000000
 368.3988295611022750  1.2342079878000001  3.3250001100000000
 371.2491107874917589  1.2342079878000001  3.3250001100000000
 372.6742511805022673  1.2342079878000001  3.3250001100000000
 375.5245324068917512  1.2342079878000001  3.3250001100000000
 376.9496727999022596  1.2342079878000001  3.3250001100000000
 379.7999540262917435  1.2342079878000001  3.3250001100000000
 381.2250944193023088  1.2342079878000001  3.3250001100000000
 384.0753756456917927  1.2342079878000001  3.3250001100000000
 385.5005160387023011  1.2342079878000001  3.3250001100000000
 388.3507972650917850  1.2342079878000001  3.3250001100000000
 389.7759376581022934  1.2342079878000001  3.3250001100000000
 392.6262188844917773  1.2342079878000001  3.3250001100000000
 394.0513592775022857  1.2342079878000001  3.3250001100000000
 396.9016405038917696  1.2342079878000001  3.3250001100000000
 398.3267808969022781  1.2342079878000001  3.3250001100000000
 401.1770621232917620  1.2342079878000001  3.3250001100000000
 402.6022025163022704  1.2342079878000001  3.3250001100000000
 405.4524837426917543  1.2342079878000001  3.3250001100000000
 406.8776241357022627  1.2342079878000001  3.3250001100000000
 409.7279053620917466  1.2342079878000001  3.3250001100000000
 411.1530457551023119  1.2342079878000001  3.3250001100000000
 414.0033269814917958  1.2342079878000001  3.3250001100000000
 415.4284673745023042  1.2342079878000001  3.3250001100000000
 418.2787486008917881  1.2342079878000001  3.3250001100000000
 419.7038889939022965  1.2342079878000001  3.3250001100000000
 422.5541702202917804  1.2342079878000001  3.3250001100000000
 423.9793106133022889  1.2342079878000001  3.3250001100000000
 426.8295918396917727  1.2342079878000001  3.3250001100000000
 428.2547322327022812  1.2342079878000001  3.3250001100000000
 431.1050134590917651  1.2342079878000001  3.3250001100000000
 432.5301538521022735  1.2342079878000001  3.3250001100000000
 435.3804350784917574  1.2342079878000001  3.3250001100000000
 436.8055754715022658  1.2342079878000001  3.3250001100000000
 439.6558566978917497  1.2342079878000001  3.3250001100000000
 441.0809970909022582  1.2342079878000001  3.3250001100000000
 443.9312783172917420  1.2342079878000001  3.3250001100000000
 445.3564187103023073  1.2342079878000001  3.3250001100000000
 448.2066999366917912  1.2342079878000001  3.3250001100000000
 449.6318403297022996  1.2342079878000001  3.3250001100000000
 452.4821215560917835  1.2342079878000001  3.3250001100000000
 453.9072619491022920  1.2342079878000001  3.3250001100000000
 456.7575431754917759  1.2342079878000001  3.3250001100000000
 458.1826835685022843  1.2342079878000001  3.3250001100000000
 461.0329647948917682  1.2342079878000001  3.3250001100000000
 462.4581051879022766  1.2342079878000001  3.3250001100000000
 465.3083864142917605  1.2342079878000001  3.3250001100000000
 466.7335268073022689  1.2342079878000001  3.3250001100000000
 469.5838080336917528  1.2342079878000001  3.3250001100000000
 471.0089484267022613  1.2342079878000001  3.3250001100000000
 473.8592296530917451  1.2342079878000001  3.3250001100000000
 475.2843700461023104  1.2342079878000001  3.3250001100000000
 478.1346512724917943  1.2342079878000001  3.3250001100000000
 479.5597916655023027  1.2342079878000001  3.3250001100000000
 482.4100728918917866  1.2342079878000001  3.3250001100000000
 483.8352132849022951  1.2342079878000001  3.3250001100000000
 486.6854945112917790  1.2342079878000001  3.3250001100000000
 488.1106349043022874  1.2342079878000001  3.3250001100000000
 490.9609161306917713  1.2342079878000001  3.3250001100000000
 492.3860565237022797  1.2342079878000001  3.3250001100000000
 495.2363377500917636  1.2342079878000001  3.3250001100000000
  1.4251405811290758  2.4684159756000001  3.3250001100000000
  2.8502811665335730  2.4684159756000001  3.3250001100000000
  5.7005622005290757  2.4684159756000001  3.3250001100000000
  7.1257027859335729  2.4684159756000001  3.3250001100000000
  9.9759838199290769  2.4684159756000001  3.3250001100000000
 11.4011244053335741  2.4684159756000001  3.3250001100000000
 14.2514054393290781  2.4684159756000001  3.3250001100000000
 15.6765460247335753  2.4684159756000001  3.3250001100000000
 18.5268270587290758  2.4684159756000001  3.3250001100000000
 19.9519676441335747  2.4684159756000001  3.3250001100000000
 22.8022486781290752  2.4684159756000001  3.3250001100000000
 24.2273892635335741  2.4684159756000001  3.3250001100000000
 27.0776702975290782  2.4684159756000001  3.3250001100000000
 28.5028108829335771  2.4684159756000001  3.3250001100000000
 31.3530919169290776  2.4684159756000001  3.3250001100000000
 32.7782325023335730  2.4684159756000001  3.3250001100000000
 35.6285135363290806  2.4684159756000001  3.3250001100000000