POSCAR for twisted bilayer graphene
1.0
    0.000000   -2.460000    0.000000
    2.130422    1.230000    0.000000
    0.000000    0.000000   23.360000
     C
     4
Direct
   -0.000000   -0.000000    0.428082
    0.333333    0.666667    0.428082
    0.666667    0.333333    0.571918
   -0.000000   -0.000000    0.571918
