C
 1.0000000000000000
     9.8400001524000000    0.0000000000000000    0.0000000000000000
    -4.9200000764000000    8.5216901051999994    0.0000000000000000
     0.0000000000000000    0.0000000000000000   10.0000000000000000
 C
  64
Cartesian
  1.2299999460000000  0.7101408000000000  3.3250001070000001
  3.6899999841000000  0.7101408000000000  3.3250001070000001
  6.1500000222000004  0.7101408000000000  3.3250001070000001
  8.6100000602999991  0.7101408000000000  3.3250001070000001
  0.0000000000000000  1.4202817270000001  3.3250001070000001
  2.4600000381000000  1.4202817270000001  3.3250001070000001
  4.9200000762000000  1.4202817270000001  3.3250001070000001
  7.3800001142999996  1.4202817270000001  3.3250001070000001
 -0.0000000731000001  2.8405633262999999  3.3250001070000001
  2.4599999649999997  2.8405633262999999  3.3250001070000001
  4.9200000031000002  2.8405633262999999  3.3250001070000001
  7.3800000411999989  2.8405633262999999  3.3250001070000001
 -1.2300000191000000  3.5507042533000002  3.3250001070000001
  1.2300000190000000  3.5507042533000002  3.3250001070000001
  3.6900000570999998  3.5507042533000002  3.3250001070000001
  6.1500000951999994  3.5507042533000002  3.3250001070000001
 -1.2300000922000001  4.9709858526000001  3.3250001070000001
  1.2299999458999999  4.9709858526000001  3.3250001070000001
  3.6899999840000000  4.9709858526000001  3.3250001070000001
  6.1500000220999986  4.9709858526000001  3.3250001070000001
 -2.4600000382000000  5.6811267795999996  3.3250001070000001
 -0.0000000001000000  5.6811267795999996  3.3250001070000001
  2.4600000380000000  5.6811267795999996  3.3250001070000001
  4.9200000760999991  5.6811267795999996  3.3250001070000001
 -2.4600001112999998  7.1014083788999987  3.3250001070000001
 -0.0000000731999998  7.1014083788999987  3.3250001070000001
  2.4599999649000002  7.1014083788999987  3.3250001070000001
  4.9200000030000002  7.1014083788999987  3.3250001070000001
 -3.6900000572999998  7.8115493058999990  3.3250001070000001
 -1.2300000191999998  7.8115493058999990  3.3250001070000001
  1.2300000189000002  7.8115493058999990  3.3250001070000001
  3.6900000569999998  7.8115493058999990  3.3250001070000001
  0.0000000000000000  0.0000000000000000  6.6750001909999996
  2.4600000381000000  0.0000000000000000  6.6750001909999996
  4.9200000762000000  0.0000000000000000  6.6750001909999996
  7.3800001142999996  0.0000000000000000  6.6750001909999996
  1.2299999460000000  0.7101408000000000  6.6750001909999996
  3.6899999841000000  0.7101408000000000  6.6750001909999996
  6.1500000222000004  0.7101408000000000  6.6750001909999996
  8.6100000602999991  0.7101408000000000  6.6750001909999996
 -1.2300000191000000  2.1304225262999998  6.6750001909999996
  1.2300000190000000  2.1304225262999998  6.6750001909999996
  3.6900000570999998  2.1304225262999998  6.6750001909999996
  6.1500000951999994  2.1304225262999998  6.6750001909999996
 -0.0000000731000001  2.8405633262999999  6.6750001909999996
  2.4599999649999997  2.8405633262999999  6.6750001909999996
  4.9200000031000002  2.8405633262999999  6.6750001909999996
  7.3800000411999989  2.8405633262999999  6.6750001909999996
 -2.4600000382000000  4.2608450525999997  6.6750001909999996
 -0.0000000001000000  4.2608450525999997  6.6750001909999996
  2.4600000380000000  4.2608450525999997  6.6750001909999996
  4.9200000760999991  4.2608450525999997  6.6750001909999996
 -1.2300000922000001  4.9709858526000001  6.6750001909999996
  1.2299999458999999  4.9709858526000001  6.6750001909999996
  3.6899999840000000  4.9709858526000001  6.6750001909999996
  6.1500000220999986  4.9709858526000001  6.6750001909999996
 -3.6900000572999998  6.3912675788999991  6.6750001909999996
 -1.2300000191999998  6.3912675788999991  6.6750001909999996
  1.2300000189000002  6.3912675788999991  6.6750001909999996
  3.6900000569999998  6.3912675788999991  6.6750001909999996
 -2.4600001112999998  7.1014083788999987  6.6750001909999996
 -0.0000000731999998  7.1014083788999987  6.6750001909999996
  2.4599999649000002  7.1014083788999987  6.6750001909999996
  4.9200000030000002  7.1014083788999987  6.6750001909999996
