New structure
1.0
       17.0433807373         0.0000000000         0.0000000000
        0.0000000000         2.4599997997         0.0000000000
        0.0000000000         0.0000000000        10.0000000000
    C
   16
Direct
     0.041666664         0.499999970         0.000000000
     0.083333313         0.000000000         0.000000000
     0.166666657         0.000000000         0.000000000
     0.208333328         0.500000000         0.000000000
     0.291666657         0.499999970         0.000000000
     0.333333313         0.000000000         0.000000000
     0.416666657         0.000000000         0.000000000
     0.458333313         0.500000000         0.000000000
     0.541666687         0.499999970         0.000000000
     0.583333313         0.000000000         0.000000000
     0.666666627         0.000000000         0.000000000
     0.708333313         0.500000000         0.000000000
     0.791666687         0.499999970         0.000000000
     0.833333313         0.000000000         0.000000000
     0.916666627         0.000000000         0.000000000
     0.958333313         0.500000000         0.000000000
