New structure
1.0
       12.7825355530         0.0000000000         0.0000000000
        0.0000000000         2.4599997997         0.0000000000
        0.0000000000         0.0000000000        10.0000000000
    C
   12
Cartesian
     0.710140822         1.229999827         0.000000000
     1.420281358         0.000000000         0.000000000
     2.840563287         0.000000000         0.000000000
     3.550704109         1.229999900         0.000000000
     4.970986133         1.229999827         0.000000000
     5.681126574         0.000000000         0.000000000
     7.101408217         0.000000000         0.000000000
     7.811549420         1.229999900         0.000000000
     9.231831063         1.229999827         0.000000000
     9.941971504         0.000000000         0.000000000
    11.362253910         0.000000000         0.000000000
    12.072394350         1.229999900         0.000000000
