New structure
1.0
      204.5205688477         0.0000000000         0.0000000000
        0.0000000000         2.4599997997         0.0000000000
        0.0000000000         0.0000000000        10.0000000000
    C
  192
Direct
     0.017361110         0.500000000         0.000000000
     0.142361104         0.500000000         0.000000000
     0.267361104         0.500000000         0.000000000
     0.392361104         0.500000000         0.000000000
     0.517361104         0.500000000         0.000000000
     0.642361104         0.500000000         0.000000000
     0.767361104         0.500000000         0.000000000
     0.892361104         0.500000000         0.000000000
     0.038194444         0.500000000         0.000000000
     0.163194448         0.500000000         0.000000000
     0.288194448         0.500000000         0.000000000
     0.413194448         0.500000000         0.000000000
     0.538194418         0.500000000         0.000000000
     0.663194418         0.500000000         0.000000000
     0.788194418         0.500000000         0.000000000
     0.913194418         0.500000000         0.000000000
     0.059027776         0.500000000         0.000000000
     0.184027776         0.500000000         0.000000000
     0.309027791         0.500000000         0.000000000
     0.434027791         0.500000000         0.000000000
     0.559027791         0.500000000         0.000000000
     0.684027791         0.500000000         0.000000000
     0.809027791         0.500000000         0.000000000
     0.934027791         0.500000000         0.000000000
     0.079861112         0.500000000         0.000000000
     0.204861104         0.500000000         0.000000000
     0.329861104         0.500000000         0.000000000
     0.454861104         0.500000000         0.000000000
     0.579861104         0.500000000         0.000000000
     0.704861104         0.500000000         0.000000000
     0.829861104         0.500000000         0.000000000
     0.954861104         0.500000000         0.000000000
     0.100694440         0.500000000         0.000000000
     0.225694448         0.500000000         0.000000000
     0.350694448         0.500000000         0.000000000
     0.475694448         0.500000000         0.000000000
     0.600694418         0.500000000         0.000000000
     0.725694418         0.500000000         0.000000000
     0.850694418         0.500000000         0.000000000
     0.975694418         0.500000000         0.000000000
     0.121527776         0.500000000         0.000000000
     0.246527776         0.500000000         0.000000000
     0.371527791         0.500000000         0.000000000
     0.496527791         0.500000000         0.000000000
     0.621527791         0.500000000         0.000000000
     0.746527791         0.500000000         0.000000000
     0.871527791         0.500000000         0.000000000
     0.996527791         0.500000000         0.000000000
     0.006944443         0.000000000         0.000000000
     0.131944448         0.000000000         0.000000000
     0.256944448         0.000000000         0.000000000
     0.381944448         0.000000000         0.000000000
     0.506944418         0.000000000         0.000000000
     0.631944418         0.000000000         0.000000000
     0.756944418         0.000000000         0.000000000
     0.881944418         0.000000000         0.000000000
     0.027777776         0.000000000         0.000000000
     0.152777776         0.000000000         0.000000000
     0.277777791         0.000000000         0.000000000
     0.402777791         0.000000000         0.000000000
     0.527777791         0.000000000         0.000000000
     0.652777791         0.000000000         0.000000000
     0.777777791         0.000000000         0.000000000
     0.902777791         0.000000000         0.000000000
     0.048611108         0.000000000         0.000000000
     0.173611104         0.000000000         0.000000000
     0.298611104         0.000000000         0.000000000
     0.423611104         0.000000000         0.000000000
     0.548611104         0.000000000         0.000000000
     0.673611104         0.000000000         0.000000000
     0.798611104         0.000000000         0.000000000
     0.923611104         0.000000000         0.000000000
     0.069444440         0.000000000         0.000000000
     0.194444448         0.000000000         0.000000000
     0.319444448         0.000000000         0.000000000
     0.444444448         0.000000000         0.000000000
     0.569444418         0.000000000         0.000000000
     0.694444418         0.000000000         0.000000000
     0.819444418         0.000000000         0.000000000
     0.944444418         0.000000000         0.000000000
     0.090277776         0.000000000         0.000000000
     0.215277776         0.000000000         0.000000000
     0.340277791         0.000000000         0.000000000
     0.465277791         0.000000000         0.000000000
     0.590277791         0.000000000         0.000000000
     0.715277791         0.000000000         0.000000000
     0.840277791         0.000000000         0.000000000
     0.965277791         0.000000000         0.000000000
     0.111111112         0.000000000         0.000000000
     0.236111104         0.000000000         0.000000000
     0.361111104         0.000000000         0.000000000
     0.486111104         0.000000000         0.000000000
     0.611111104         0.000000000         0.000000000
     0.736111104         0.000000000         0.000000000
     0.861111104         0.000000000         0.000000000
     0.986111104         0.000000000         0.000000000
     0.003472222         0.499999970         0.000000000
     0.128472224         0.499999970         0.000000000
     0.253472209         0.499999970         0.000000000
     0.378472209         0.499999970         0.000000000
     0.503472209         0.499999970         0.000000000
     0.628472209         0.499999970         0.000000000
     0.753472209         0.499999970         0.000000000
     0.878472209         0.499999970         0.000000000
     0.024305556         0.499999970         0.000000000
     0.149305552         0.499999970         0.000000000
     0.274305552         0.499999970         0.000000000
     0.399305552         0.499999970         0.000000000
     0.524305582         0.499999970         0.000000000
     0.649305582         0.499999970         0.000000000
     0.774305582         0.499999970         0.000000000
     0.899305582         0.499999970         0.000000000
     0.045138888         0.499999970         0.000000000
     0.170138896         0.499999970         0.000000000
     0.295138896         0.499999970         0.000000000
     0.420138896         0.499999970         0.000000000
     0.545138896         0.499999970         0.000000000
     0.670138896         0.499999970         0.000000000
     0.795138896         0.499999970         0.000000000
     0.920138896         0.499999970         0.000000000
     0.065972224         0.499999970         0.000000000
     0.190972224         0.499999970         0.000000000
     0.315972209         0.499999970         0.000000000
     0.440972209         0.499999970         0.000000000
     0.565972209         0.499999970         0.000000000
     0.690972209         0.499999970         0.000000000
     0.815972209         0.499999970         0.000000000
     0.940972209         0.499999970         0.000000000
     0.086805552         0.499999970         0.000000000
     0.211805552         0.499999970         0.000000000
     0.336805552         0.499999970         0.000000000
     0.461805552         0.499999970         0.000000000
     0.586805582         0.499999970         0.000000000
     0.711805582         0.499999970         0.000000000
     0.836805582         0.499999970         0.000000000
     0.961805582         0.499999970         0.000000000
     0.107638888         0.499999970         0.000000000
     0.232638896         0.499999970         0.000000000
     0.357638896         0.499999970         0.000000000
     0.482638896         0.499999970         0.000000000
     0.607638896         0.499999970         0.000000000
     0.732638896         0.499999970         0.000000000
     0.857638896         0.499999970         0.000000000
     0.982638896         0.499999970         0.000000000
     0.013888888         0.000000000         0.000000000
     0.138888896         0.000000000         0.000000000
     0.263888896         0.000000000         0.000000000
     0.388888896         0.000000000         0.000000000
     0.513888896         0.000000000         0.000000000
     0.638888896         0.000000000         0.000000000
     0.763888896         0.000000000         0.000000000
     0.888888896         0.000000000         0.000000000
     0.034722220         0.000000000         0.000000000
     0.159722224         0.000000000         0.000000000
     0.284722209         0.000000000         0.000000000
     0.409722209         0.000000000         0.000000000
     0.534722209         0.000000000         0.000000000
     0.659722209         0.000000000         0.000000000
     0.784722209         0.000000000         0.000000000
     0.909722209         0.000000000         0.000000000
     0.055555556         0.000000000         0.000000000
     0.180555552         0.000000000         0.000000000
     0.305555552         0.000000000         0.000000000
     0.430555552         0.000000000         0.000000000
     0.555555582         0.000000000         0.000000000
     0.680555582         0.000000000         0.000000000
     0.805555582         0.000000000         0.000000000
     0.930555582         0.000000000         0.000000000
     0.076388888         0.000000000         0.000000000
     0.201388896         0.000000000         0.000000000
     0.326388896         0.000000000         0.000000000
     0.451388896         0.000000000         0.000000000
     0.576388896         0.000000000         0.000000000
     0.701388896         0.000000000         0.000000000
     0.826388896         0.000000000         0.000000000
     0.951388896         0.000000000         0.000000000
     0.097222224         0.000000000         0.000000000
     0.222222224         0.000000000         0.000000000
     0.347222209         0.000000000         0.000000000
     0.472222209         0.000000000         0.000000000
     0.597222209         0.000000000         0.000000000
     0.722222209         0.000000000         0.000000000
     0.847222209         0.000000000         0.000000000
     0.972222209         0.000000000         0.000000000
     0.118055552         0.000000000         0.000000000
     0.243055552         0.000000000         0.000000000
     0.368055552         0.000000000         0.000000000
     0.493055552         0.000000000         0.000000000
     0.618055582         0.000000000         0.000000000
     0.743055582         0.000000000         0.000000000
     0.868055582         0.000000000         0.000000000
     0.993055582         0.000000000         0.000000000
