C 
 1.0000000000000000
   149.6397566790000155    0.0000000000000000    0.0000000000000000
     0.0000000000000000  148.1049585359999980    0.0000000000000000
     0.0000000000000000    0.0000000000000000   10.0000000000000000
 C  
 16800
Cartesian
  1.4251405811290758  0.0000000000000000  3.3250001100000000
  2.8502811665335730  0.0000000000000000  3.3250001100000000
  5.7005622005290757  0.0000000000000000  3.3250001100000000
  7.1257027859335729  0.0000000000000000  3.3250001100000000
  9.9759838199290769  0.0000000000000000  3.3250001100000000
 11.4011244053335741  0.0000000000000000  3.3250001100000000
 14.2514054393290781  0.0000000000000000  3.3250001100000000
 15.6765460247335753  0.0000000000000000  3.3250001100000000
 18.5268270587290758  0.0000000000000000  3.3250001100000000
 19.9519676441335747  0.0000000000000000  3.3250001100000000
 22.8022486781290752  0.0000000000000000  3.3250001100000000
 24.2273892635335741  0.0000000000000000  3.3250001100000000
 27.0776702975290782  0.0000000000000000  3.3250001100000000
 28.5028108829335771  0.0000000000000000  3.3250001100000000
 31.3530919169290776  0.0000000000000000  3.3250001100000000
 32.7782325023335730  0.0000000000000000  3.3250001100000000
 35.6285135363290806  0.0000000000000000  3.3250001100000000
 37.0536541217335724  0.0000000000000000  3.3250001100000000
 39.9039351557290800  0.0000000000000000  3.3250001100000000
 41.3290757411335719  0.0000000000000000  3.3250001100000000
 44.1793567751290794  0.0000000000000000  3.3250001100000000
 45.6044973605335713  0.0000000000000000  3.3250001100000000
 48.4547783945290789  0.0000000000000000  3.3250001100000000
 49.8799189799335707  0.0000000000000000  3.3250001100000000
 52.7302000139290854  0.0000000000000000  3.3250001100000000
 54.1553405993335772  0.0000000000000000  3.3250001100000000
 57.0056216333290848  0.0000000000000000  3.3250001100000000
 58.4307622187335767  0.0000000000000000  3.3250001100000000
 61.2810432527290843  0.0000000000000000  3.3250001100000000
 62.7061838381335761  0.0000000000000000  3.3250001100000000
 65.5564648721290695  0.0000000000000000  3.3250001100000000
 66.9816054575335755  0.0000000000000000  3.3250001100000000
 69.8318864915290760  0.0000000000000000  3.3250001100000000
 71.2570270769335821  0.0000000000000000  3.3250001100000000
 74.1073081109290825  0.0000000000000000  3.3250001100000000
 75.5324486963335886  0.0000000000000000  3.3250001100000000
 78.3827297303290749  0.0000000000000000  3.3250001100000000
 79.8078703157335809  0.0000000000000000  3.3250001100000000
 82.6581513497290814  0.0000000000000000  3.3250001100000000
 84.0832919351335875  0.0000000000000000  3.3250001100000000
 86.9335729691290737  0.0000000000000000  3.3250001100000000
 88.3587135545335798  0.0000000000000000  3.3250001100000000
 91.2089945885290803  0.0000000000000000  3.3250001100000000
 92.6341351739335863  0.0000000000000000  3.3250001100000000
 95.4844162079290726  0.0000000000000000  3.3250001100000000
 96.9095567933335786  0.0000000000000000  3.3250001100000000
 99.7598378273290791  0.0000000000000000  3.3250001100000000
 101.1849784127335852  0.0000000000000000  3.3250001100000000
 104.0352594467290857  0.0000000000000000  3.3250001100000000
 105.4604000321335917  0.0000000000000000  3.3250001100000000
 108.3106810661290780  0.0000000000000000  3.3250001100000000
 109.7358216515335840  0.0000000000000000  3.3250001100000000
 112.5861026855290845  0.0000000000000000  3.3250001100000000
 114.0112432709335906  0.0000000000000000  3.3250001100000000
 116.8615243049290768  0.0000000000000000  3.3250001100000000
 118.2866648903335829  0.0000000000000000  3.3250001100000000
 121.1369459243290834  0.0000000000000000  3.3250001100000000
 122.5620865097335894  0.0000000000000000  3.3250001100000000
 125.4123675437290757  0.0000000000000000  3.3250001100000000
 126.8375081291335817  0.0000000000000000  3.3250001100000000
 129.6877891631290822  0.0000000000000000  3.3250001100000000
 131.1129297485335599  0.0000000000000000  3.3250001100000000
 133.9632107825291030  0.0000000000000000  3.3250001100000000
 135.3883513679335806  0.0000000000000000  3.3250001100000000
 138.2386324019290953  0.0000000000000000  3.3250001100000000
 139.6637729873335729  0.0000000000000000  3.3250001100000000
 142.5140540213290876  0.0000000000000000  3.3250001100000000
 143.9391946067335653  0.0000000000000000  3.3250001100000000
 146.7894756407291084  0.0000000000000000  3.3250001100000000
 148.2146162261335860  0.0000000000000000  3.3250001100000000
  0.7125702927022486  1.2342079878000001  3.3250001100000000
  3.5628515190917245  1.2342079878000001  3.3250001100000000
  4.9879919121022489  1.2342079878000001  3.3250001100000000
  7.8382731384917248  1.2342079878000001  3.3250001100000000
  9.2634135315022483  1.2342079878000001  3.3250001100000000
 12.1136947578917251  1.2342079878000001  3.3250001100000000
 13.5388351509022513  1.2342079878000001  3.3250001100000000
 16.3891163772917281  1.2342079878000001  3.3250001100000000
 17.8142567703022507  1.2342079878000001  3.3250001100000000
 20.6645379966917275  1.2342079878000001  3.3250001100000000
 22.0896783897022502  1.2342079878000001  3.3250001100000000
 24.9399596160917270  1.2342079878000001  3.3250001100000000
 26.3651000091022532  1.2342079878000001  3.3250001100000000
 29.2153812354917264  1.2342079878000001  3.3250001100000000
 30.6405216285022526  1.2342079878000001  3.3250001100000000
 33.4908028548917258  1.2342079878000001  3.3250001100000000
 34.9159432479022485  1.2342079878000001  3.3250001100000000
 37.7662244742917252  1.2342079878000001  3.3250001100000000
 39.1913648673022479  1.2342079878000001  3.3250001100000000
 42.0416460936917247  1.2342079878000001  3.3250001100000000
 43.4667864867022473  1.2342079878000001  3.3250001100000000
 46.3170677130917241  1.2342079878000001  3.3250001100000000
 47.7422081061022467  1.2342079878000001  3.3250001100000000
 50.5924893324917235  1.2342079878000001  3.3250001100000000
 52.0176297255022533  1.2342079878000001  3.3250001100000000
 54.8679109518917301  1.2342079878000001  3.3250001100000000
 56.2930513449022527  1.2342079878000001  3.3250001100000000
 59.1433325712917295  1.2342079878000001  3.3250001100000000
 60.5684729643022521  1.2342079878000001  3.3250001100000000
 63.4187541906917289  1.2342079878000001  3.3250001100000000
 64.8438945837022516  1.2342079878000001  3.3250001100000000
 67.6941758100917212  1.2342079878000001  3.3250001100000000
 69.1193162031022581  1.2342079878000001  3.3250001100000000
 71.9695974294917278  1.2342079878000001  3.3250001100000000
 73.3947378225022646  1.2342079878000001  3.3250001100000000
 76.2450190488917343  1.2342079878000001  3.3250001100000000
 77.6701594419022570  1.2342079878000001  3.3250001100000000
 80.5204406682917266  1.2342079878000001  3.3250001100000000
 81.9455810613022635  1.2342079878000001  3.3250001100000000
 84.7958622876917332  1.2342079878000001  3.3250001100000000
 86.2210026807022558  1.2342079878000001  3.3250001100000000
 89.0712839070917255  1.2342079878000001  3.3250001100000000
 90.4964243001022624  1.2342079878000001  3.3250001100000000
 93.3467055264917320  1.2342079878000001  3.3250001100000000
 94.7718459195022547  1.2342079878000001  3.3250001100000000
 97.6221271458917244  1.2342079878000001  3.3250001100000000
 99.0472675389022612  1.2342079878000001  3.3250001100000000
 101.8975487652917309  1.2342079878000001  3.3250001100000000
 103.3226891583022677  1.2342079878000001  3.3250001100000000
 106.1729703846917374  1.2342079878000001  3.3250001100000000
 107.5981107777022601  1.2342079878000001  3.3250001100000000
 110.4483920040917297  1.2342079878000001  3.3250001100000000
 111.8735323971022666  1.2342079878000001  3.3250001100000000
 114.7238136234917363  1.2342079878000001  3.3250001100000000
 116.1489540165022589  1.2342079878000001  3.3250001100000000
 118.9992352428917286  1.2342079878000001  3.3250001100000000
 120.4243756359022655  1.2342079878000001  3.3250001100000000
 123.2746568622917351  1.2342079878000001  3.3250001100000000
 124.6997972553022578  1.2342079878000001  3.3250001100000000
 127.5500784816917275  1.2342079878000001  3.3250001100000000
 128.9752188747022501  1.2342079878000001  3.3250001100000000
 131.8255001010917340  1.2342079878000001  3.3250001100000000
 133.2506404941022708  1.2342079878000001  3.3250001100000000
 136.1009217204917547  1.2342079878000001  3.3250001100000000
 137.5260621135022632  1.2342079878000001  3.3250001100000000
 140.3763433398917471  1.2342079878000001  3.3250001100000000
 141.8014837329022555  1.2342079878000001  3.3250001100000000
 144.6517649592917394  1.2342079878000001  3.3250001100000000
 146.0769053523022762  1.2342079878000001  3.3250001100000000
 148.9271865786917601  1.2342079878000001  3.3250001100000000
  1.4251405811290758  2.4684159756000001  3.3250001100000000
  2.8502811665335730  2.4684159756000001  3.3250001100000000
  5.7005622005290757  2.4684159756000001  3.3250001100000000
  7.1257027859335729  2.4684159756000001  3.3250001100000000
  9.9759838199290769  2.4684159756000001  3.3250001100000000
 11.4011244053335741  2.4684159756000001  3.3250001100000000
 14.2514054393290781  2.4684159756000001  3.3250001100000000
 15.6765460247335753  2.4684159756000001  3.3250001100000000
 18.5268270587290758  2.4684159756000001  3.3250001100000000
 19.9519676441335747  2.4684159756000001  3.3250001100000000
 22.8022486781290752  2.4684159756000001  3.3250001100000000
 24.2273892635335741  2.4684159756000001  3.3250001100000000
 27.0776702975290782  2.4684159756000001  3.3250001100000000
 28.5028108829335771  2.4684159756000001  3.3250001100000000
 31.3530919169290776  2.4684159756000001  3.3250001100000000
 32.7782325023335730  2.4684159756000001  3.3250001100000000
 35.6285135363290806  2.4684159756000001  3.3250001100000000
 37.0536541217335724  2.4684159756000001  3.3250001100000000
 39.9039351557290800  2.4684159756000001  3.3250001100000000
 41.3290757411335719  2.4684159756000001  3.3250001100000000
 44.1793567751290794  2.4684159756000001  3.3250001100000000
 45.6044973605335713  2.4684159756000001  3.3250001100000000
 48.4547783945290789  2.4684159756000001  3.3250001100000000
 49.8799189799335707  2.4684159756000001  3.3250001100000000
 52.7302000139290854  2.4684159756000001  3.3250001100000000
 54.1553405993335772  2.4684159756000001  3.3250001100000000
 57.0056216333290848  2.4684159756000001  3.3250001100000000
 58.4307622187335767  2.4684159756000001  3.3250001100000000
 61.2810432527290843  2.4684159756000001  3.3250001100000000
 62.7061838381335761  2.4684159756000001  3.3250001100000000
 65.5564648721290695  2.4684159756000001  3.3250001100000000
 66.9816054575335755  2.4684159756000001  3.3250001100000000
 69.8318864915290760  2.4684159756000001  3.3250001100000000
 71.2570270769335821  2.4684159756000001  3.3250001100000000
 74.1073081109290825  2.4684159756000001  3.3250001100000000
 75.5324486963335886  2.4684159756000001  3.3250001100000000
 78.3827297303290749  2.4684159756000001  3.3250001100000000
 79.8078703157335809  2.4684159756000001  3.3250001100000000
 82.6581513497290814  2.4684159756000001  3.3250001100000000
 84.0832919351335875  2.4684159756000001  3.3250001100000000
 86.9335729691290737  2.4684159756000001  3.3250001100000000
 88.3587135545335798  2.4684159756000001  3.3250001100000000
 91.2089945885290803  2.4684159756000001  3.3250001100000000
 92.6341351739335863  2.4684159756000001  3.3250001100000000
 95.4844162079290726  2.4684159756000001  3.3250001100000000
 96.9095567933335786  2.4684159756000001  3.3250001100000000
 99.7598378273290791  2.4684159756000001  3.3250001100000000
 101.1849784127335852  2.4684159756000001  3.3250001100000000
 104.0352594467290857  2.4684159756000001  3.3250001100000000
 105.4604000321335917  2.4684159756000001  3.3250001100000000
 108.3106810661290780  2.4684159756000001  3.3250001100000000
 109.7358216515335840  2.4684159756000001  3.3250001100000000
 112.5861026855290845  2.4684159756000001  3.3250001100000000
 114.0112432709335906  2.4684159756000001  3.3250001100000000
 116.8615243049290768  2.4684159756000001  3.3250001100000000
 118.2866648903335829  2.4684159756000001  3.3250001100000000
 121.1369459243290834  2.4684159756000001  3.3250001100000000
 122.5620865097335894  2.4684159756000001  3.3250001100000000
 125.4123675437290757  2.4684159756000001  3.3250001100000000
 126.8375081291335817  2.4684159756000001  3.3250001100000000
 129.6877891631290822  2.4684159756000001  3.3250001100000000
 131.1129297485335599  2.4684159756000001  3.3250001100000000
 133.9632107825291030  2.4684159756000001  3.3250001100000000
 135.3883513679335806  2.4684159756000001  3.3250001100000000
 138.2386324019290953  2.4684159756000001  3.3250001100000000
 139.6637729873335729  2.4684159756000001  3.3250001100000000
 142.5140540213290876  2.4684159756000001  3.3250001100000000
 143.9391946067335653  2.4684159756000001  3.3250001100000000
 146.7894756407291084  2.4684159756000001  3.3250001100000000
 148.2146162261335860  2.4684159756000001  3.3250001100000000
  0.7125702927022486  3.7026239634000002  3.3250001100000000
  3.5628515190917245  3.7026239634000002  3.3250001100000000
  4.9879919121022489  3.7026239634000002  3.3250001100000000
  7.8382731384917248  3.7026239634000002  3.3250001100000000
  9.2634135315022483  3.7026239634000002  3.3250001100000000
 12.1136947578917251  3.7026239634000002  3.3250001100000000
 13.5388351509022513  3.7026239634000002  3.3250001100000000
 16.3891163772917281  3.7026239634000002  3.3250001100000000
 17.8142567703022507  3.7026239634000002  3.3250001100000000
 20.6645379966917275  3.7026239634000002  3.3250001100000000
 22.0896783897022502  3.7026239634000002  3.3250001100000000
 24.9399596160917270  3.7026239634000002  3.3250001100000000
 26.3651000091022532  3.7026239634000002  3.3250001100000000
 29.2153812354917264  3.7026239634000002  3.3250001100000000
 30.6405216285022526  3.7026239634000002  3.3250001100000000
 33.4908028548917258  3.7026239634000002  3.3250001100000000
 34.9159432479022485  3.7026239634000002  3.3250001100000000
 37.7662244742917252  3.7026239634000002  3.3250001100000000
 39.1913648673022479  3.7026239634000002  3.3250001100000000
 42.0416460936917247  3.7026239634000002  3.3250001100000000
 43.4667864867022473  3.7026239634000002  3.3250001100000000
 46.3170677130917241  3.7026239634000002  3.3250001100000000
 47.7422081061022467  3.7026239634000002  3.3250001100000000
 50.5924893324917235  3.7026239634000002  3.3250001100000000
 52.0176297255022533  3.7026239634000002  3.3250001100000000
 54.8679109518917301  3.7026239634000002  3.3250001100000000
 56.2930513449022527  3.7026239634000002  3.3250001100000000
 59.1433325712917295  3.7026239634000002  3.3250001100000000
 60.5684729643022521  3.7026239634000002  3.3250001100000000
 63.4187541906917289  3.7026239634000002  3.3250001100000000
 64.8438945837022516  3.7026239634000002  3.3250001100000000
 67.6941758100917212  3.7026239634000002  3.3250001100000000
 69.1193162031022581  3.7026239634000002  3.3250001100000000
 71.9695974294917278  3.7026239634000002  3.3250001100000000
 73.3947378225022646  3.7026239634000002  3.3250001100000000
 76.2450190488917343  3.7026239634000002  3.3250001100000000
 77.6701594419022570  3.7026239634000002  3.3250001100000000
 80.5204406682917266  3.7026239634000002  3.3250001100000000
 81.9455810613022635  3.7026239634000002  3.3250001100000000
 84.7958622876917332  3.7026239634000002  3.3250001100000000
 86.2210026807022558  3.7026239634000002  3.3250001100000000
 89.0712839070917255  3.7026239634000002  3.3250001100000000
 90.4964243001022624  3.7026239634000002  3.3250001100000000
 93.3467055264917320  3.7026239634000002  3.3250001100000000
 94.7718459195022547  3.7026239634000002  3.3250001100000000
 97.6221271458917244  3.7026239634000002  3.3250001100000000
 99.0472675389022612  3.7026239634000002  3.3250001100000000
 101.8975487652917309  3.7026239634000002  3.3250001100000000
 103.3226891583022677  3.7026239634000002  3.3250001100000000
 106.1729703846917374  3.7026239634000002  3.3250001100000000
 107.5981107777022601  3.7026239634000002  3.3250001100000000
 110.4483920040917297  3.7026239634000002  3.3250001100000000
 111.8735323971022666  3.7026239634000002  3.3250001100000000
 114.7238136234917363  3.7026239634000002  3.3250001100000000
 116.1489540165022589  3.7026239634000002  3.3250001100000000
 118.9992352428917286  3.7026239634000002  3.3250001100000000
 120.4243756359022655  3.7026239634000002  3.3250001100000000
 123.2746568622917351  3.7026239634000002  3.3250001100000000
 124.6997972553022578  3.7026239634000002  3.3250001100000000
 127.5500784816917275  3.7026239634000002  3.3250001100000000
 128.9752188747022501  3.7026239634000002  3.3250001100000000
 131.8255001010917340  3.7026239634000002  3.3250001100000000
 133.2506404941022708  3.7026239634000002  3.3250001100000000
 136.1009217204917547  3.7026239634000002  3.3250001100000000
 137.5260621135022632  3.7026239634000002  3.3250001100000000
 140.3763433398917471  3.7026239634000002  3.3250001100000000
 141.8014837329022555  3.7026239634000002  3.3250001100000000
 144.6517649592917394  3.7026239634000002  3.3250001100000000
 146.0769053523022762  3.7026239634000002  3.3250001100000000
 148.9271865786917601  3.7026239634000002  3.3250001100000000
  1.4251405811290758  4.9368319512000003  3.3250001100000000
  2.8502811665335730  4.9368319512000003  3.3250001100000000
  5.7005622005290757  4.9368319512000003  3.3250001100000000
  7.1257027859335729  4.9368319512000003  3.3250001100000000
  9.9759838199290769  4.9368319512000003  3.3250001100000000
 11.4011244053335741  4.9368319512000003  3.3250001100000000
 14.2514054393290781  4.9368319512000003  3.3250001100000000
 15.6765460247335753  4.9368319512000003  3.3250001100000000
 18.5268270587290758  4.9368319512000003  3.3250001100000000
 19.9519676441335747  4.9368319512000003  3.3250001100000000
 22.8022486781290752  4.9368319512000003  3.3250001100000000
 24.2273892635335741  4.9368319512000003  3.3250001100000000
 27.0776702975290782  4.9368319512000003  3.3250001100000000
 28.5028108829335771  4.9368319512000003  3.3250001100000000
 31.3530919169290776  4.9368319512000003  3.3250001100000000
 32.7782325023335730  4.9368319512000003  3.3250001100000000
 35.6285135363290806  4.9368319512000003  3.3250001100000000
 37.0536541217335724  4.9368319512000003  3.3250001100000000
 39.9039351557290800  4.9368319512000003  3.3250001100000000
 41.3290757411335719  4.9368319512000003  3.3250001100000000
 44.1793567751290794  4.9368319512000003  3.3250001100000000
 45.6044973605335713  4.9368319512000003  3.3250001100000000
 48.4547783945290789  4.9368319512000003  3.3250001100000000
 49.8799189799335707  4.9368319512000003  3.3250001100000000
 52.7302000139290854  4.9368319512000003  3.3250001100000000
 54.1553405993335772  4.9368319512000003  3.3250001100000000
 57.0056216333290848  4.9368319512000003  3.3250001100000000
 58.4307622187335767  4.9368319512000003  3.3250001100000000
 61.2810432527290843  4.9368319512000003  3.3250001100000000
 62.7061838381335761  4.9368319512000003  3.3250001100000000
 65.5564648721290695  4.9368319512000003  3.3250001100000000
 66.9816054575335755  4.9368319512000003  3.3250001100000000
 69.8318864915290760  4.9368319512000003  3.3250001100000000
 71.2570270769335821  4.9368319512000003  3.3250001100000000
 74.1073081109290825  4.9368319512000003  3.3250001100000000
 75.5324486963335886  4.9368319512000003  3.3250001100000000
 78.3827297303290749  4.9368319512000003  3.3250001100000000
 79.8078703157335809  4.9368319512000003  3.3250001100000000
 82.6581513497290814  4.9368319512000003  3.3250001100000000
 84.0832919351335875  4.9368319512000003  3.3250001100000000
 86.9335729691290737  4.9368319512000003  3.3250001100000000
 88.3587135545335798  4.9368319512000003  3.3250001100000000
 91.2089945885290803  4.9368319512000003  3.3250001100000000
 92.6341351739335863  4.9368319512000003  3.3250001100000000
 95.4844162079290726  4.9368319512000003  3.3250001100000000
 96.9095567933335786  4.9368319512000003  3.3250001100000000
 99.7598378273290791  4.9368319512000003  3.3250001100000000
 101.1849784127335852  4.9368319512000003  3.3250001100000000
 104.0352594467290857  4.9368319512000003  3.3250001100000000
 105.4604000321335917  4.9368319512000003  3.3250001100000000
 108.3106810661290780  4.9368319512000003  3.3250001100000000
 109.7358216515335840  4.9368319512000003  3.3250001100000000
 112.5861026855290845  4.9368319512000003  3.3250001100000000
 114.0112432709335906  4.9368319512000003  3.3250001100000000
 116.8615243049290768  4.9368319512000003  3.3250001100000000
 118.2866648903335829  4.9368319512000003  3.3250001100000000
 121.1369459243290834  4.9368319512000003  3.3250001100000000
 122.5620865097335894  4.9368319512000003  3.3250001100000000
 125.4123675437290757  4.9368319512000003  3.3250001100000000
 126.8375081291335817  4.9368319512000003  3.3250001100000000
 129.6877891631290822  4.9368319512000003  3.3250001100000000
 131.1129297485335599  4.9368319512000003  3.3250001100000000
 133.9632107825291030  4.9368319512000003  3.3250001100000000
 135.3883513679335806  4.9368319512000003  3.3250001100000000
 138.2386324019290953  4.9368319512000003  3.3250001100000000
 139.6637729873335729  4.9368319512000003  3.3250001100000000
 142.5140540213290876  4.9368319512000003  3.3250001100000000
 143.9391946067335653  4.9368319512000003  3.3250001100000000
 146.7894756407291084  4.9368319512000003  3.3250001100000000
 148.2146162261335860  4.9368319512000003  3.3250001100000000
  0.7125702927022486  6.1710399389999999  3.3250001100000000
  3.5628515190917245  6.1710399389999999  3.3250001100000000
  4.9879919121022489  6.1710399389999999  3.3250001100000000
  7.8382731384917248  6.1710399389999999  3.3250001100000000
  9.2634135315022483  6.1710399389999999  3.3250001100000000
 12.1136947578917251  6.1710399389999999  3.3250001100000000
 13.5388351509022513  6.1710399389999999  3.3250001100000000
 16.3891163772917281  6.1710399389999999  3.3250001100000000
 17.8142567703022507  6.1710399389999999  3.3250001100000000
 20.6645379966917275  6.1710399389999999  3.3250001100000000
 22.0896783897022502  6.1710399389999999  3.3250001100000000
 24.9399596160917270  6.1710399389999999  3.3250001100000000
 26.3651000091022532  6.1710399389999999  3.3250001100000000
 29.2153812354917264  6.1710399389999999  3.3250001100000000
 30.6405216285022526  6.1710399389999999  3.3250001100000000
 33.4908028548917258  6.1710399389999999  3.3250001100000000
 34.9159432479022485  6.1710399389999999  3.3250001100000000
 37.7662244742917252  6.1710399389999999  3.3250001100000000
 39.1913648673022479  6.1710399389999999  3.3250001100000000
 42.0416460936917247  6.1710399389999999  3.3250001100000000
 43.4667864867022473  6.1710399389999999  3.3250001100000000
 46.3170677130917241  6.1710399389999999  3.3250001100000000
 47.7422081061022467  6.1710399389999999  3.3250001100000000
 50.5924893324917235  6.1710399389999999  3.3250001100000000
 52.0176297255022533  6.1710399389999999  3.3250001100000000
 54.8679109518917301  6.1710399389999999  3.3250001100000000
 56.2930513449022527  6.1710399389999999  3.3250001100000000
 59.1433325712917295  6.1710399389999999  3.3250001100000000
 60.5684729643022521  6.1710399389999999  3.3250001100000000
 63.4187541906917289  6.1710399389999999  3.3250001100000000
 64.8438945837022516  6.1710399389999999  3.3250001100000000
 67.6941758100917212  6.1710399389999999  3.3250001100000000
 69.1193162031022581  6.1710399389999999  3.3250001100000000
 71.9695974294917278  6.1710399389999999  3.3250001100000000
 73.3947378225022646  6.1710399389999999  3.3250001100000000
 76.2450190488917343  6.1710399389999999  3.3250001100000000
 77.6701594419022570  6.1710399389999999  3.3250001100000000
 80.5204406682917266  6.1710399389999999  3.3250001100000000
 81.9455810613022635  6.1710399389999999  3.3250001100000000
 84.7958622876917332  6.1710399389999999  3.3250001100000000
 86.2210026807022558  6.1710399389999999  3.3250001100000000
 89.0712839070917255  6.1710399389999999  3.3250001100000000
 90.4964243001022624  6.1710399389999999  3.3250001100000000
 93.3467055264917320  6.1710399389999999  3.3250001100000000
 94.7718459195022547  6.1710399389999999  3.3250001100000000
 97.6221271458917244  6.1710399389999999  3.3250001100000000
 99.0472675389022612  6.1710399389999999  3.3250001100000000
 101.8975487652917309  6.1710399389999999  3.3250001100000000
 103.3226891583022677  6.1710399389999999  3.3250001100000000
 106.1729703846917374  6.1710399389999999  3.3250001100000000
 107.5981107777022601  6.1710399389999999  3.3250001100000000
 110.4483920040917297  6.1710399389999999  3.3250001100000000
 111.8735323971022666  6.1710399389999999  3.3250001100000000
 114.7238136234917363  6.1710399389999999  3.3250001100000000
 116.1489540165022589  6.1710399389999999  3.3250001100000000
 118.9992352428917286  6.1710399389999999  3.3250001100000000
 120.4243756359022655  6.1710399389999999  3.3250001100000000
 123.2746568622917351  6.1710399389999999  3.3250001100000000
 124.6997972553022578  6.1710399389999999  3.3250001100000000
 127.5500784816917275  6.1710399389999999  3.3250001100000000
 128.9752188747022501  6.1710399389999999  3.3250001100000000
 131.8255001010917340  6.1710399389999999  3.3250001100000000
 133.2506404941022708  6.1710399389999999  3.3250001100000000
 136.1009217204917547  6.1710399389999999  3.3250001100000000
 137.5260621135022632  6.1710399389999999  3.3250001100000000
 140.3763433398917471  6.1710399389999999  3.3250001100000000
 141.8014837329022555  6.1710399389999999  3.3250001100000000
 144.6517649592917394  6.1710399389999999  3.3250001100000000
 146.0769053523022762  6.1710399389999999  3.3250001100000000
 148.9271865786917601  6.1710399389999999  3.3250001100000000
  1.4251405811290758  7.4052479268000004  3.3250001100000000
  2.8502811665335730  7.4052479268000004  3.3250001100000000
  5.7005622005290757  7.4052479268000004  3.3250001100000000
  7.1257027859335729  7.4052479268000004  3.3250001100000000
  9.9759838199290769  7.4052479268000004  3.3250001100000000
 11.4011244053335741  7.4052479268000004  3.3250001100000000
 14.2514054393290781  7.4052479268000004  3.3250001100000000
 15.6765460247335753  7.4052479268000004  3.3250001100000000
 18.5268270587290758  7.4052479268000004  3.3250001100000000
 19.9519676441335747  7.4052479268000004  3.3250001100000000
 22.8022486781290752  7.4052479268000004  3.3250001100000000
 24.2273892635335741  7.4052479268000004  3.3250001100000000
 27.0776702975290782  7.4052479268000004  3.3250001100000000
 28.5028108829335771  7.4052479268000004  3.3250001100000000
 31.3530919169290776  7.4052479268000004  3.3250001100000000
 32.7782325023335730  7.4052479268000004  3.3250001100000000
 35.6285135363290806  7.4052479268000004  3.3250001100000000
 37.0536541217335724  7.4052479268000004  3.3250001100000000
 39.9039351557290800  7.4052479268000004  3.3250001100000000
 41.3290757411335719  7.4052479268000004  3.3250001100000000
 44.1793567751290794  7.4052479268000004  3.3250001100000000
 45.6044973605335713  7.4052479268000004  3.3250001100000000
 48.4547783945290789  7.4052479268000004  3.3250001100000000
 49.8799189799335707  7.4052479268000004  3.3250001100000000
 52.7302000139290854  7.4052479268000004  3.3250001100000000
 54.1553405993335772  7.4052479268000004  3.3250001100000000
 57.0056216333290848  7.4052479268000004  3.3250001100000000
 58.4307622187335767  7.4052479268000004  3.3250001100000000
 61.2810432527290843  7.4052479268000004  3.3250001100000000
 62.7061838381335761  7.4052479268000004  3.3250001100000000
 65.5564648721290695  7.4052479268000004  3.3250001100000000
 66.9816054575335755  7.4052479268000004  3.3250001100000000
 69.8318864915290760  7.4052479268000004  3.3250001100000000
 71.2570270769335821  7.4052479268000004  3.3250001100000000
 74.1073081109290825  7.4052479268000004  3.3250001100000000
 75.5324486963335886  7.4052479268000004  3.3250001100000000
 78.3827297303290749  7.4052479268000004  3.3250001100000000
 79.8078703157335809  7.4052479268000004  3.3250001100000000
 82.6581513497290814  7.4052479268000004  3.3250001100000000
 84.0832919351335875  7.4052479268000004  3.3250001100000000
 86.9335729691290737  7.4052479268000004  3.3250001100000000
 88.3587135545335798  7.4052479268000004  3.3250001100000000
 91.2089945885290803  7.4052479268000004  3.3250001100000000
 92.6341351739335863  7.4052479268000004  3.3250001100000000
 95.4844162079290726  7.4052479268000004  3.3250001100000000
 96.9095567933335786  7.4052479268000004  3.3250001100000000
 99.7598378273290791  7.4052479268000004  3.3250001100000000
 101.1849784127335852  7.4052479268000004  3.3250001100000000
 104.0352594467290857  7.4052479268000004  3.3250001100000000
 105.4604000321335917  7.4052479268000004  3.3250001100000000
 108.3106810661290780  7.4052479268000004  3.3250001100000000
 109.7358216515335840  7.4052479268000004  3.3250001100000000
 112.5861026855290845  7.4052479268000004  3.3250001100000000
 114.0112432709335906  7.4052479268000004  3.3250001100000000
 116.8615243049290768  7.4052479268000004  3.3250001100000000
 118.2866648903335829  7.4052479268000004  3.3250001100000000
 121.1369459243290834  7.4052479268000004  3.3250001100000000
 122.5620865097335894  7.4052479268000004  3.3250001100000000
 125.4123675437290757  7.4052479268000004  3.3250001100000000
 126.8375081291335817  7.4052479268000004  3.3250001100000000
 129.6877891631290822  7.4052479268000004  3.3250001100000000
 131.1129297485335599  7.4052479268000004  3.3250001100000000
 133.9632107825291030  7.4052479268000004  3.3250001100000000
 135.3883513679335806  7.4052479268000004  3.3250001100000000
 138.2386324019290953  7.4052479268000004  3.3250001100000000