New structure
1.0
        7.3800001144         0.0000000000         0.0000000000
       -1.2300000191         2.1304225263         0.0000000000
        0.0000000000         0.0000000000        10.0000000000
    C
    6
Cartesian
    -0.000000018         1.420281727         0.000000000
     2.460000038         1.420281727         0.000000000
     4.920000150         1.420281727         0.000000000
     1.229999946         0.710140800         0.000000000
     3.689999837         0.710140800         0.000000000
     6.150000169         0.710140800         0.000000000
