 C 
 1.0000000000000000
    17.1016864776000013    0.0000000000000000    0.0000000000000000
     0.0000000000000000    9.8736639024000006    0.0000000000000000
     0.0000000000000000    0.0000000000000000   10.0000000000000000
 C  
 128
Cartesian
  1.4251405811290758  0.0000000000000000  3.3250001100000000
  2.8502811665335730  0.0000000000000000  3.3250001100000000
  5.7005622005290757  0.0000000000000000  3.3250001100000000
  7.1257027859335729  0.0000000000000000  3.3250001100000000
  9.9759838199290769  0.0000000000000000  3.3250001100000000
 11.4011244053335741  0.0000000000000000  3.3250001100000000
 14.2514054393290781  0.0000000000000000  3.3250001100000000
 15.6765460247335753  0.0000000000000000  3.3250001100000000
  0.7125702927022486  1.2342079878000001  3.3250001100000000
  3.5628515190917245  1.2342079878000001  3.3250001100000000
  4.9879919121022489  1.2342079878000001  3.3250001100000000
  7.8382731384917248  1.2342079878000001  3.3250001100000000
  9.2634135315022483  1.2342079878000001  3.3250001100000000
 12.1136947578917251  1.2342079878000001  3.3250001100000000
 13.5388351509022513  1.2342079878000001  3.3250001100000000
 16.3891163772917281  1.2342079878000001  3.3250001100000000
  1.4251405811290758  2.4684159756000001  3.3250001100000000
  2.8502811665335730  2.4684159756000001  3.3250001100000000
  5.7005622005290757  2.4684159756000001  3.3250001100000000
  7.1257027859335729  2.4684159756000001  3.3250001100000000
  9.9759838199290769  2.4684159756000001  3.3250001100000000
 11.4011244053335741  2.4684159756000001  3.3250001100000000
 14.2514054393290781  2.4684159756000001  3.3250001100000000
 15.6765460247335753  2.4684159756000001  3.3250001100000000
  0.7125702927022486  3.7026239634000002  3.3250001100000000
  3.5628515190917245  3.7026239634000002  3.3250001100000000
  4.9879919121022489  3.7026239634000002  3.3250001100000000
  7.8382731384917248  3.7026239634000002  3.3250001100000000
  9.2634135315022483  3.7026239634000002  3.3250001100000000
 12.1136947578917251  3.7026239634000002  3.3250001100000000
 13.5388351509022513  3.7026239634000002  3.3250001100000000
 16.3891163772917281  3.7026239634000002  3.3250001100000000
  1.4251405811290758  4.9368319512000003  3.3250001100000000
  2.8502811665335730  4.9368319512000003  3.3250001100000000
  5.7005622005290757  4.9368319512000003  3.3250001100000000
  7.1257027859335729  4.9368319512000003  3.3250001100000000
  9.9759838199290769  4.9368319512000003  3.3250001100000000
 11.4011244053335741  4.9368319512000003  3.3250001100000000
 14.2514054393290781  4.9368319512000003  3.3250001100000000
 15.6765460247335753  4.9368319512000003  3.3250001100000000
  0.7125702927022486  6.1710399389999999  3.3250001100000000
  3.5628515190917245  6.1710399389999999  3.3250001100000000
  4.9879919121022489  6.1710399389999999  3.3250001100000000
  7.8382731384917248  6.1710399389999999  3.3250001100000000
  9.2634135315022483  6.1710399389999999  3.3250001100000000
 12.1136947578917251  6.1710399389999999  3.3250001100000000
 13.5388351509022513  6.1710399389999999  3.3250001100000000
 16.3891163772917281  6.1710399389999999  3.3250001100000000
  1.4251405811290758  7.4052479268000004  3.3250001100000000
  2.8502811665335730  7.4052479268000004  3.3250001100000000
  5.7005622005290757  7.4052479268000004  3.3250001100000000
  7.1257027859335729  7.4052479268000004  3.3250001100000000
  9.9759838199290769  7.4052479268000004  3.3250001100000000
 11.4011244053335741  7.4052479268000004  3.3250001100000000
 14.2514054393290781  7.4052479268000004  3.3250001100000000
 15.6765460247335753  7.4052479268000004  3.3250001100000000
  0.7125702927022486  8.6394559146000010  3.3250001100000000
  3.5628515190917245  8.6394559146000010  3.3250001100000000
  4.9879919121022489  8.6394559146000010  3.3250001100000000
  7.8382731384917248  8.6394559146000010  3.3250001100000000
  9.2634135315022483  8.6394559146000010  3.3250001100000000
 12.1136947578917251  8.6394559146000010  3.3250001100000000
 13.5388351509022513  8.6394559146000010  3.3250001100000000
 16.3891163772917281  8.6394559146000010  3.3250001100000000
  0.0000000000000000  0.0000000000000000  6.6750001900000004
  1.4251405811290758  0.0000000000000000  6.6750001900000004
  4.2754216194000003  0.0000000000000000  6.6750001900000004
  5.7005622005290757  0.0000000000000000  6.6750001900000004
  8.5508432388000006  0.0000000000000000  6.6750001900000004
  9.9759838199290769  0.0000000000000000  6.6750001900000004
 12.8262648582000018  0.0000000000000000  6.6750001900000004
 14.2514054393290781  0.0000000000000000  6.6750001900000004
  2.1377108097000002  1.2342079878000001  6.6750001900000004
  3.5628515190917245  1.2342079878000001  6.6750001900000004
  6.4131324291000009  1.2342079878000001  6.6750001900000004
  7.8382731384917248  1.2342079878000001  6.6750001900000004
 10.6885540485000003  1.2342079878000001  6.6750001900000004
 12.1136947578917251  1.2342079878000001  6.6750001900000004
 14.9639756679000016  1.2342079878000001  6.6750001900000004
 16.3891163772917281  1.2342079878000001  6.6750001900000004
  0.0000000000000000  2.4684159756000001  6.6750001900000004
  1.4251405811290758  2.4684159756000001  6.6750001900000004
  4.2754216194000003  2.4684159756000001  6.6750001900000004
  5.7005622005290757  2.4684159756000001  6.6750001900000004
  8.5508432388000006  2.4684159756000001  6.6750001900000004
  9.9759838199290769  2.4684159756000001  6.6750001900000004
 12.8262648582000018  2.4684159756000001  6.6750001900000004
 14.2514054393290781  2.4684159756000001  6.6750001900000004
  2.1377108097000002  3.7026239634000002  6.6750001900000004
  3.5628515190917245  3.7026239634000002  6.6750001900000004
  6.4131324291000009  3.7026239634000002  6.6750001900000004
  7.8382731384917248  3.7026239634000002  6.6750001900000004
 10.6885540485000003  3.7026239634000002  6.6750001900000004
 12.1136947578917251  3.7026239634000002  6.6750001900000004
 14.9639756679000016  3.7026239634000002  6.6750001900000004
 16.3891163772917281  3.7026239634000002  6.6750001900000004
  0.0000000000000000  4.9368319512000003  6.6750001900000004
  1.4251405811290758  4.9368319512000003  6.6750001900000004
  4.2754216194000003  4.9368319512000003  6.6750001900000004
  5.7005622005290757  4.9368319512000003  6.6750001900000004
  8.5508432388000006  4.9368319512000003  6.6750001900000004
  9.9759838199290769  4.9368319512000003  6.6750001900000004
 12.8262648582000018  4.9368319512000003  6.6750001900000004
 14.2514054393290781  4.9368319512000003  6.6750001900000004
  2.1377108097000002  6.1710399389999999  6.6750001900000004
  3.5628515190917245  6.1710399389999999  6.6750001900000004
  6.4131324291000009  6.1710399389999999  6.6750001900000004
  7.8382731384917248  6.1710399389999999  6.6750001900000004
 10.6885540485000003  6.1710399389999999  6.6750001900000004
 12.1136947578917251  6.1710399389999999  6.6750001900000004
 14.9639756679000016  6.1710399389999999  6.6750001900000004
 16.3891163772917281  6.1710399389999999  6.6750001900000004
  0.0000000000000000  7.4052479268000004  6.6750001900000004
  1.4251405811290758  7.4052479268000004  6.6750001900000004
  4.2754216194000003  7.4052479268000004  6.6750001900000004
  5.7005622005290757  7.4052479268000004  6.6750001900000004
  8.5508432388000006  7.4052479268000004  6.6750001900000004
  9.9759838199290769  7.4052479268000004  6.6750001900000004
 12.8262648582000018  7.4052479268000004  6.6750001900000004
 14.2514054393290781  7.4052479268000004  6.6750001900000004
  2.1377108097000002  8.6394559146000010  6.6750001900000004
  3.5628515190917245  8.6394559146000010  6.6750001900000004
  6.4131324291000009  8.6394559146000010  6.6750001900000004
  7.8382731384917248  8.6394559146000010  6.6750001900000004
 10.6885540485000003  8.6394559146000010  6.6750001900000004
 12.1136947578917251  8.6394559146000010  6.6750001900000004
 14.9639756679000016  8.6394559146000010  6.6750001900000004
 16.3891163772917281  8.6394559146000010  6.6750001900000004
