Graphene
1.0
      149.6397552490         0.0000000000         0.0000000000
        0.0000000000       148.1049652100         0.0000000000
        0.0000000000         0.0000000000        10.0000000000
    C
16800
Cartesian
     0.712570290         1.234208108         3.325000107
     0.712570290         3.702624185         3.325000107
     0.712570290         6.171040401         3.325000107
     0.712570290         8.639456341         3.325000107
     0.712570290        11.107872832         3.325000107
     0.712570290        13.576288772         3.325000107
     0.712570290        16.044704712         3.325000107
     0.712570290        18.513120651         3.325000107
     0.712570290        20.981536591         3.325000107
     0.712570290        23.449952531         3.325000107
     0.712570290        25.918368470         3.325000107
     0.712570290        28.386784410         3.325000107
     0.712570290        30.855200350         3.325000107
     0.712570290        33.323616289         3.325000107
     0.712570290        35.792032229         3.325000107
     0.712570290        38.260448169         3.325000107
     0.712570290        40.728866316         3.325000107
     0.712570290        43.197280048         3.325000107
     0.712570290        45.665698195         3.325000107
     0.712570290        48.134111928         3.325000107
     0.712570290        50.602530074         3.325000107
     0.712570290        53.070943807         3.325000107
     0.712570290        55.539361954         3.325000107
     0.712570290        58.007780100         3.325000107
     0.712570290        60.476193833         3.325000107
     0.712570290        62.944611980         3.325000107
     0.712570290        65.413025713         3.325000107
     0.712570290        67.881443859         3.325000107
     0.712570290        70.349857592         3.325000107
     0.712570290        72.818275739         3.325000107
     0.712570290        75.286689471         3.325000107
     0.712570290        77.755103204         3.325000107
     0.712570290        80.223525765         3.325000107
     0.712570290        82.691939497         3.325000107
     0.712570290        85.160353230         3.325000107
     0.712570290        87.628766963         3.325000107
     0.712570290        90.097189523         3.325000107
     0.712570290        92.565603256         3.325000107
     0.712570290        95.034016989         3.325000107
     0.712570290        97.502439550         3.325000107
     0.712570290        99.970853282         3.325000107
     0.712570290       102.439267015         3.325000107
     0.712570290       104.907680748         3.325000107
     0.712570290       107.376103308         3.325000107
     0.712570290       109.844517041         3.325000107
     0.712570290       112.312930774         3.325000107
     0.712570290       114.781344507         3.325000107
     0.712570290       117.249767067         3.325000107
     0.712570290       119.718180800         3.325000107
     0.712570290       122.186594533         3.325000107
     0.712570290       124.655008265         3.325000107
     0.712570290       127.123430826         3.325000107
     0.712570290       129.591844559         3.325000107
     0.712570290       132.060258291         3.325000107
     0.712570290       134.528680852         3.325000107
     0.712570290       136.997094585         3.325000107
     0.712570290       139.465508318         3.325000107
     0.712570290       141.933922050         3.325000107
     0.712570290       144.402344611         3.325000107
     0.712570290       146.870758344         3.325000107
     4.987992102         1.234208108         3.325000107
     4.987992102         3.702624185         3.325000107
     4.987992102         6.171040401         3.325000107
     4.987992102         8.639456341         3.325000107
     4.987992102        11.107872832         3.325000107
     4.987992102        13.576288772         3.325000107
     4.987992102        16.044704712         3.325000107
     4.987992102        18.513120651         3.325000107
     4.987992102        20.981536591         3.325000107
     4.987992102        23.449952531         3.325000107
     4.987992102        25.918368470         3.325000107
     4.987992102        28.386784410         3.325000107
     4.987992102        30.855200350         3.325000107
     4.987992102        33.323616289         3.325000107
     4.987992102        35.792032229         3.325000107
     4.987992102        38.260448169         3.325000107
     4.987992102        40.728866316         3.325000107
     4.987992102        43.197280048         3.325000107
     4.987992102        45.665698195         3.325000107
     4.987992102        48.134111928         3.325000107
     4.987992102        50.602530074         3.325000107
     4.987992102        53.070943807         3.325000107
     4.987992102        55.539361954         3.325000107
     4.987992102        58.007780100         3.325000107
     4.987992102        60.476193833         3.325000107
     4.987992102        62.944611980         3.325000107
     4.987992102        65.413025713         3.325000107
     4.987992102        67.881443859         3.325000107
     4.987992102        70.349857592         3.325000107
     4.987992102        72.818275739         3.325000107
     4.987992102        75.286689471         3.325000107
     4.987992102        77.755103204         3.325000107
     4.987992102        80.223525765         3.325000107
     4.987992102        82.691939497         3.325000107
     4.987992102        85.160353230         3.325000107
     4.987992102        87.628766963         3.325000107
     4.987992102        90.097189523         3.325000107
     4.987992102        92.565603256         3.325000107
     4.987992102        95.034016989         3.325000107
     4.987992102        97.502439550         3.325000107
     4.987992102        99.970853282         3.325000107
     4.987992102       102.439267015         3.325000107
     4.987992102       104.907680748         3.325000107
     4.987992102       107.376103308         3.325000107
     4.987992102       109.844517041         3.325000107
     4.987992102       112.312930774         3.325000107
     4.987992102       114.781344507         3.325000107
     4.987992102       117.249767067         3.325000107
     4.987992102       119.718180800         3.325000107
     4.987992102       122.186594533         3.325000107
     4.987992102       124.655008265         3.325000107
     4.987992102       127.123430826         3.325000107
     4.987992102       129.591844559         3.325000107
     4.987992102       132.060258291         3.325000107
     4.987992102       134.528680852         3.325000107
     4.987992102       136.997094585         3.325000107
     4.987992102       139.465508318         3.325000107
     4.987992102       141.933922050         3.325000107
     4.987992102       144.402344611         3.325000107
     4.987992102       146.870758344         3.325000107
     9.263413425         1.234208108         3.325000107
     9.263413425         3.702624185         3.325000107
     9.263413425         6.171040401         3.325000107
     9.263413425         8.639456341         3.325000107
     9.263413425        11.107872832         3.325000107
     9.263413425        13.576288772         3.325000107
     9.263413425        16.044704712         3.325000107
     9.263413425        18.513120651         3.325000107
     9.263413425        20.981536591         3.325000107
     9.263413425        23.449952531         3.325000107
     9.263413425        25.918368470         3.325000107
     9.263413425        28.386784410         3.325000107
     9.263413425        30.855200350         3.325000107
     9.263413425        33.323616289         3.325000107
     9.263413425        35.792032229         3.325000107
     9.263413425        38.260448169         3.325000107
     9.263413425        40.728866316         3.325000107
     9.263413425        43.197280048         3.325000107
     9.263413425        45.665698195         3.325000107
     9.263413425        48.134111928         3.325000107
     9.263413425        50.602530074         3.325000107
     9.263413425        53.070943807         3.325000107
     9.263413425        55.539361954         3.325000107
     9.263413425        58.007780100         3.325000107
     9.263413425        60.476193833         3.325000107
     9.263413425        62.944611980         3.325000107
     9.263413425        65.413025713         3.325000107
     9.263413425        67.881443859         3.325000107
     9.263413425        70.349857592         3.325000107
     9.263413425        72.818275739         3.325000107
     9.263413425        75.286689471         3.325000107
     9.263413425        77.755103204         3.325000107
     9.263413425        80.223525765         3.325000107
     9.263413425        82.691939497         3.325000107
     9.263413425        85.160353230         3.325000107
     9.263413425        87.628766963         3.325000107
     9.263413425        90.097189523         3.325000107
     9.263413425        92.565603256         3.325000107
     9.263413425        95.034016989         3.325000107
     9.263413425        97.502439550         3.325000107
     9.263413425        99.970853282         3.325000107
     9.263413425       102.439267015         3.325000107
     9.263413425       104.907680748         3.325000107
     9.263413425       107.376103308         3.325000107
     9.263413425       109.844517041         3.325000107
     9.263413425       112.312930774         3.325000107
     9.263413425       114.781344507         3.325000107
     9.263413425       117.249767067         3.325000107
     9.263413425       119.718180800         3.325000107
     9.263413425       122.186594533         3.325000107
     9.263413425       124.655008265         3.325000107
     9.263413425       127.123430826         3.325000107
     9.263413425       129.591844559         3.325000107
     9.263413425       132.060258291         3.325000107
     9.263413425       134.528680852         3.325000107
     9.263413425       136.997094585         3.325000107
     9.263413425       139.465508318         3.325000107
     9.263413425       141.933922050         3.325000107
     9.263413425       144.402344611         3.325000107
     9.263413425       146.870758344         3.325000107
    13.538835307         1.234208108         3.325000107
    13.538835307         3.702624185         3.325000107
    13.538835307         6.171040401         3.325000107
    13.538835307         8.639456341         3.325000107
    13.538835307        11.107872832         3.325000107
    13.538835307        13.576288772         3.325000107
    13.538835307        16.044704712         3.325000107
    13.538835307        18.513120651         3.325000107
    13.538835307        20.981536591         3.325000107
    13.538835307        23.449952531         3.325000107
    13.538835307        25.918368470         3.325000107
    13.538835307        28.386784410         3.325000107
    13.538835307        30.855200350         3.325000107
    13.538835307        33.323616289         3.325000107
    13.538835307        35.792032229         3.325000107
    13.538835307        38.260448169         3.325000107
    13.538835307        40.728866316         3.325000107
    13.538835307        43.197280048         3.325000107
    13.538835307        45.665698195         3.325000107
    13.538835307        48.134111928         3.325000107
    13.538835307        50.602530074         3.325000107
    13.538835307        53.070943807         3.325000107
    13.538835307        55.539361954         3.325000107
    13.538835307        58.007780100         3.325000107
    13.538835307        60.476193833         3.325000107
    13.538835307        62.944611980         3.325000107
    13.538835307        65.413025713         3.325000107
    13.538835307        67.881443859         3.325000107
    13.538835307        70.349857592         3.325000107
    13.538835307        72.818275739         3.325000107
    13.538835307        75.286689471         3.325000107
    13.538835307        77.755103204         3.325000107
    13.538835307        80.223525765         3.325000107
    13.538835307        82.691939497         3.325000107
    13.538835307        85.160353230         3.325000107
    13.538835307        87.628766963         3.325000107
    13.538835307        90.097189523         3.325000107
    13.538835307        92.565603256         3.325000107
    13.538835307        95.034016989         3.325000107
    13.538835307        97.502439550         3.325000107
    13.538835307        99.970853282         3.325000107
    13.538835307       102.439267015         3.325000107
    13.538835307       104.907680748         3.325000107
    13.538835307       107.376103308         3.325000107
    13.538835307       109.844517041         3.325000107
    13.538835307       112.312930774         3.325000107
    13.538835307       114.781344507         3.325000107
    13.538835307       117.249767067         3.325000107
    13.538835307       119.718180800         3.325000107
    13.538835307       122.186594533         3.325000107
    13.538835307       124.655008265         3.325000107
    13.538835307       127.123430826         3.325000107
    13.538835307       129.591844559         3.325000107
    13.538835307       132.060258291         3.325000107
    13.538835307       134.528680852         3.325000107
    13.538835307       136.997094585         3.325000107
    13.538835307       139.465508318         3.325000107
    13.538835307       141.933922050         3.325000107
    13.538835307       144.402344611         3.325000107
    13.538835307       146.870758344         3.325000107
    17.814256630         1.234208108         3.325000107
    17.814256630         3.702624185         3.325000107
    17.814256630         6.171040401         3.325000107
    17.814256630         8.639456341         3.325000107
    17.814256630        11.107872832         3.325000107
    17.814256630        13.576288772         3.325000107
    17.814256630        16.044704712         3.325000107
    17.814256630        18.513120651         3.325000107
    17.814256630        20.981536591         3.325000107
    17.814256630        23.449952531         3.325000107
    17.814256630        25.918368470         3.325000107
    17.814256630        28.386784410         3.325000107
    17.814256630        30.855200350         3.325000107
    17.814256630        33.323616289         3.325000107
    17.814256630        35.792032229         3.325000107
    17.814256630        38.260448169         3.325000107
    17.814256630        40.728866316         3.325000107
    17.814256630        43.197280048         3.325000107
    17.814256630        45.665698195         3.325000107
    17.814256630        48.134111928         3.325000107
    17.814256630        50.602530074         3.325000107
    17.814256630        53.070943807         3.325000107
    17.814256630        55.539361954         3.325000107
    17.814256630        58.007780100         3.325000107
    17.814256630        60.476193833         3.325000107
    17.814256630        62.944611980         3.325000107
    17.814256630        65.413025713         3.325000107
    17.814256630        67.881443859         3.325000107
    17.814256630        70.349857592         3.325000107
    17.814256630        72.818275739         3.325000107
    17.814256630        75.286689471         3.325000107
    17.814256630        77.755103204         3.325000107
    17.814256630        80.223525765         3.325000107
    17.814256630        82.691939497         3.325000107
    17.814256630        85.160353230         3.325000107
    17.814256630        87.628766963         3.325000107
    17.814256630        90.097189523         3.325000107
    17.814256630        92.565603256         3.325000107
    17.814256630        95.034016989         3.325000107
    17.814256630        97.502439550         3.325000107
    17.814256630        99.970853282         3.325000107
    17.814256630       102.439267015         3.325000107
    17.814256630       104.907680748         3.325000107
    17.814256630       107.376103308         3.325000107
    17.814256630       109.844517041         3.325000107
    17.814256630       112.312930774         3.325000107
    17.814256630       114.781344507         3.325000107
    17.814256630       117.249767067         3.325000107
    17.814256630       119.718180800         3.325000107
    17.814256630       122.186594533         3.325000107
    17.814256630       124.655008265         3.325000107
    17.814256630       127.123430826         3.325000107
    17.814256630       129.591844559         3.325000107
    17.814256630       132.060258291         3.325000107
    17.814256630       134.528680852         3.325000107
    17.814256630       136.997094585         3.325000107
    17.814256630       139.465508318         3.325000107
    17.814256630       141.933922050         3.325000107
    17.814256630       144.402344611         3.325000107
    17.814256630       146.870758344         3.325000107
    22.089679069         1.234208108         3.325000107
    22.089679069         3.702624185         3.325000107
    22.089679069         6.171040401         3.325000107
    22.089679069         8.639456341         3.325000107
    22.089679069        11.107872832         3.325000107
    22.089679069        13.576288772         3.325000107
    22.089679069        16.044704712         3.325000107
    22.089679069        18.513120651         3.325000107
    22.089679069        20.981536591         3.325000107
    22.089679069        23.449952531         3.325000107
    22.089679069        25.918368470         3.325000107
    22.089679069        28.386784410         3.325000107
    22.089679069        30.855200350         3.325000107
    22.089679069        33.323616289         3.325000107
    22.089679069        35.792032229         3.325000107
    22.089679069        38.260448169         3.325000107
    22.089679069        40.728866316         3.325000107
    22.089679069        43.197280048         3.325000107
    22.089679069        45.665698195         3.325000107
    22.089679069        48.134111928         3.325000107
    22.089679069        50.602530074         3.325000107
    22.089679069        53.070943807         3.325000107
    22.089679069        55.539361954         3.325000107
    22.089679069        58.007780100         3.325000107
    22.089679069        60.476193833         3.325000107
    22.089679069        62.944611980         3.325000107
    22.089679069        65.413025713         3.325000107
    22.089679069        67.881443859         3.325000107
    22.089679069        70.349857592         3.325000107
    22.089679069        72.818275739         3.325000107
    22.089679069        75.286689471         3.325000107
    22.089679069        77.755103204         3.325000107
    22.089679069        80.223525765         3.325000107
    22.089679069        82.691939497         3.325000107
    22.089679069        85.160353230         3.325000107
    22.089679069        87.628766963         3.325000107
    22.089679069        90.097189523         3.325000107
    22.089679069        92.565603256         3.325000107
    22.089679069        95.034016989         3.325000107
    22.089679069        97.502439550         3.325000107
    22.089679069        99.970853282         3.325000107
    22.089679069       102.439267015         3.325000107
    22.089679069       104.907680748         3.325000107
    22.089679069       107.376103308         3.325000107
    22.089679069       109.844517041         3.325000107
    22.089679069       112.312930774         3.325000107
    22.089679069       114.781344507         3.325000107
    22.089679069       117.249767067         3.325000107
    22.089679069       119.718180800         3.325000107
    22.089679069       122.186594533         3.325000107
    22.089679069       124.655008265         3.325000107
    22.089679069       127.123430826         3.325000107
    22.089679069       129.591844559         3.325000107
    22.089679069       132.060258291         3.325000107
    22.089679069       134.528680852         3.325000107
    22.089679069       136.997094585         3.325000107
    22.089679069       139.465508318         3.325000107
    22.089679069       141.933922050         3.325000107
    22.089679069       144.402344611         3.325000107
    22.089679069       146.870758344         3.325000107
    26.365100393         1.234208108         3.325000107
    26.365100393         3.702624185         3.325000107
    26.365100393         6.171040401         3.325000107
    26.365100393         8.639456341         3.325000107
    26.365100393        11.107872832         3.325000107
    26.365100393        13.576288772         3.325000107
    26.365100393        16.044704712         3.325000107
    26.365100393        18.513120651         3.325000107
    26.365100393        20.981536591         3.325000107
    26.365100393        23.449952531         3.325000107
    26.365100393        25.918368470         3.325000107
    26.365100393        28.386784410         3.325000107
    26.365100393        30.855200350         3.325000107
    26.365100393        33.323616289         3.325000107
    26.365100393        35.792032229         3.325000107
    26.365100393        38.260448169         3.325000107
    26.365100393        40.728866316         3.325000107
    26.365100393        43.197280048         3.325000107
    26.365100393        45.665698195         3.325000107
    26.365100393        48.134111928         3.325000107
    26.365100393        50.602530074         3.325000107
    26.365100393        53.070943807         3.325000107
    26.365100393        55.539361954         3.325000107
    26.365100393        58.007780100         3.325000107
    26.365100393        60.476193833         3.325000107
    26.365100393        62.944611980         3.325000107
    26.365100393        65.413025713         3.325000107
    26.365100393        67.881443859         3.325000107
    26.365100393        70.349857592         3.325000107
    26.365100393        72.818275739         3.325000107
    26.365100393        75.286689471         3.325000107
    26.365100393        77.755103204         3.325000107
    26.365100393        80.223525765         3.325000107
    26.365100393        82.691939497         3.325000107
    26.365100393        85.160353230         3.325000107
    26.365100393        87.628766963         3.325000107
    26.365100393        90.097189523         3.325000107
    26.365100393        92.565603256         3.325000107
    26.365100393        95.034016989         3.325000107
    26.365100393        97.502439550         3.325000107
    26.365100393        99.970853282         3.325000107
    26.365100393       102.439267015         3.325000107
    26.365100393       104.907680748         3.325000107
    26.365100393       107.376103308         3.325000107
    26.365100393       109.844517041         3.325000107
    26.365100393       112.312930774         3.325000107
    26.365100393       114.781344507         3.325000107
    26.365100393       117.249767067         3.325000107
    26.365100393       119.718180800         3.325000107
    26.365100393       122.186594533         3.325000107
    26.365100393       124.655008265         3.325000107
    26.365100393       127.123430826         3.325000107
    26.365100393       129.591844559         3.325000107
    26.365100393       132.060258291         3.325000107
    26.365100393       134.528680852         3.325000107
    26.365100393       136.997094585         3.325000107
    26.365100393       139.465508318         3.325000107
    26.365100393       141.933922050         3.325000107
    26.365100393       144.402344611         3.325000107
    26.365100393       146.870758344         3.325000107
    30.640521716         1.234208108         3.325000107
    30.640521716         3.702624185         3.325000107
    30.640521716         6.171040401         3.325000107
    30.640521716         8.639456341         3.325000107
    30.640521716        11.107872832         3.325000107
    30.640521716        13.576288772         3.325000107
    30.640521716        16.044704712         3.325000107
    30.640521716        18.513120651         3.325000107
    30.640521716        20.981536591         3.325000107
    30.640521716        23.449952531         3.325000107
    30.640521716        25.918368470         3.325000107
    30.640521716        28.386784410         3.325000107
    30.640521716        30.855200350         3.325000107
    30.640521716        33.323616289         3.325000107
    30.640521716        35.792032229         3.325000107
    30.640521716        38.260448169         3.325000107
    30.640521716        40.728866316         3.325000107
    30.640521716        43.197280048         3.325000107
    30.640521716        45.665698195         3.325000107
    30.640521716        48.134111928         3.325000107
    30.640521716        50.602530074         3.325000107
    30.640521716        53.070943807         3.325000107
    30.640521716        55.539361954         3.325000107
    30.640521716        58.007780100         3.325000107
    30.640521716        60.476193833         3.325000107
    30.640521716        62.944611980         3.325000107
    30.640521716        65.413025713         3.325000107
    30.640521716        67.881443859         3.325000107
    30.640521716        70.349857592         3.325000107
    30.640521716        72.818275739         3.325000107
    30.640521716        75.286689471         3.325000107
    30.640521716        77.755103204         3.325000107
    30.640521716        80.223525765         3.325000107
    30.640521716        82.691939497         3.325000107
    30.640521716        85.160353230         3.325000107
    30.640521716        87.628766963         3.325000107
    30.640521716        90.097189523         3.325000107
    30.640521716        92.565603256         3.325000107
    30.640521716        95.034016989         3.325000107
    30.640521716        97.502439550         3.325000107
    30.640521716        99.970853282         3.325000107
    30.640521716       102.439267015         3.325000107
    30.640521716       104.907680748         3.325000107
    30.640521716       107.376103308         3.325000107
    30.640521716       109.844517041         3.325000107
    30.640521716       112.312930774         3.325000107
    30.640521716       114.781344507         3.325000107
    30.640521716       117.249767067         3.325000107
    30.640521716       119.718180800         3.325000107
    30.640521716       122.186594533         3.325000107
    30.640521716       124.655008265         3.325000107
    30.640521716       127.123430826         3.325000107
    30.640521716       129.591844559         3.325000107
    30.640521716       132.060258291         3.325000107
    30.640521716       134.528680852         3.325000107
    30.640521716       136.997094585         3.325000107
    30.640521716       139.465508318         3.325000107
    30.640521716       141.933922050         3.325000107
    30.640521716       144.402344611         3.325000107
    30.640521716       146.870758344         3.325000107
    34.915943040         1.234208108         3.325000107
    34.915943040         3.702624185         3.325000107
    34.915943040         6.171040401         3.325000107
    34.915943040         8.639456341         3.325000107
    34.915943040        11.107872832         3.325000107
    34.915943040        13.576288772         3.325000107
    34.915943040        16.044704712         3.325000107
    34.915943040        18.513120651         3.325000107
    34.915943040        20.981536591         3.325000107
    34.915943040        23.449952531         3.325000107
    34.915943040        25.918368470         3.325000107
    34.915943040        28.386784410         3.325000107
    34.915943040        30.855200350         3.325000107
    34.915943040        33.323616289         3.325000107
    34.915943040        35.792032229         3.325000107
    34.915943040        38.260448169         3.325000107
    34.915943040        40.728866316         3.325000107
    34.915943040        43.197280048         3.325000107
    34.915943040        45.665698195         3.325000107
    34.915943040        48.134111928         3.325000107
    34.915943040        50.602530074         3.325000107
    34.915943040        53.070943807         3.325000107
    34.915943040        55.539361954         3.325000107
    34.915943040        58.007780100         3.325000107
    34.915943040        60.476193833         3.325000107
    34.915943040        62.944611980         3.325000107
    34.915943040        65.413025713         3.325000107
    34.915943040        67.881443859         3.325000107
    34.915943040        70.349857592         3.325000107
    34.915943040        72.818275739         3.325000107
    34.915943040        75.286689471         3.325000107
    34.915943040        77.755103204         3.325000107
    34.915943040        80.223525765         3.325000107
    34.915943040        82.691939497         3.325000107
    34.915943040        85.160353230         3.325000107
    34.915943040        87.628766963         3.325000107
    34.915943040        90.097189523         3.325000107
    34.915943040        92.565603256         3.325000107
    34.915943040        95.034016989         3.325000107
    34.915943040        97.502439550         3.325000107
    34.915943040        99.970853282         3.325000107
    34.915943040       102.439267015         3.325000107