 C 
 1.0000000000000000
    85.5084323880000028    0.0000000000000000    0.0000000000000000
     0.0000000000000000   49.3683195119999993    0.0000000000000000
     0.0000000000000000    0.0000000000000000   10.0000000000000000
 C  
 3200
Cartesian
  1.4251405811290758  0.0000000000000000  3.3250001100000000
  2.8502811665335730  0.0000000000000000  3.3250001100000000
  5.7005622005290757  0.0000000000000000  3.3250001100000000
  7.1257027859335729  0.0000000000000000  3.3250001100000000
  9.9759838199290769  0.0000000000000000  3.3250001100000000
 11.4011244053335741  0.0000000000000000  3.3250001100000000
 14.2514054393290781  0.0000000000000000  3.3250001100000000
 15.6765460247335753  0.0000000000000000  3.3250001100000000
 18.5268270587290758  0.0000000000000000  3.3250001100000000
 19.9519676441335747  0.0000000000000000  3.3250001100000000
 22.8022486781290752  0.0000000000000000  3.3250001100000000
 24.2273892635335741  0.0000000000000000  3.3250001100000000
 27.0776702975290782  0.0000000000000000  3.3250001100000000
 28.5028108829335771  0.0000000000000000  3.3250001100000000
 31.3530919169290776  0.0000000000000000  3.3250001100000000
 32.7782325023335730  0.0000000000000000  3.3250001100000000
 35.6285135363290806  0.0000000000000000  3.3250001100000000
 37.0536541217335724  0.0000000000000000  3.3250001100000000
 39.9039351557290800  0.0000000000000000  3.3250001100000000
 41.3290757411335719  0.0000000000000000  3.3250001100000000
 44.1793567751290794  0.0000000000000000  3.3250001100000000
 45.6044973605335713  0.0000000000000000  3.3250001100000000
 48.4547783945290789  0.0000000000000000  3.3250001100000000
 49.8799189799335707  0.0000000000000000  3.3250001100000000
 52.7302000139290854  0.0000000000000000  3.3250001100000000
 54.1553405993335772  0.0000000000000000  3.3250001100000000
 57.0056216333290848  0.0000000000000000  3.3250001100000000
 58.4307622187335767  0.0000000000000000  3.3250001100000000
 61.2810432527290843  0.0000000000000000  3.3250001100000000
 62.7061838381335761  0.0000000000000000  3.3250001100000000
 65.5564648721290695  0.0000000000000000  3.3250001100000000
 66.9816054575335755  0.0000000000000000  3.3250001100000000
 69.8318864915290760  0.0000000000000000  3.3250001100000000
 71.2570270769335821  0.0000000000000000  3.3250001100000000
 74.1073081109290825  0.0000000000000000  3.3250001100000000
 75.5324486963335886  0.0000000000000000  3.3250001100000000
 78.3827297303290749  0.0000000000000000  3.3250001100000000
 79.8078703157335809  0.0000000000000000  3.3250001100000000
 82.6581513497290814  0.0000000000000000  3.3250001100000000
 84.0832919351335875  0.0000000000000000  3.3250001100000000
  0.7125702927022486  1.2342079878000001  3.3250001100000000
  3.5628515190917245  1.2342079878000001  3.3250001100000000
  4.9879919121022489  1.2342079878000001  3.3250001100000000
  7.8382731384917248  1.2342079878000001  3.3250001100000000
  9.2634135315022483  1.2342079878000001  3.3250001100000000
 12.1136947578917251  1.2342079878000001  3.3250001100000000
 13.5388351509022513  1.2342079878000001  3.3250001100000000
 16.3891163772917281  1.2342079878000001  3.3250001100000000
 17.8142567703022507  1.2342079878000001  3.3250001100000000
 20.6645379966917275  1.2342079878000001  3.3250001100000000
 22.0896783897022502  1.2342079878000001  3.3250001100000000
 24.9399596160917270  1.2342079878000001  3.3250001100000000
 26.3651000091022532  1.2342079878000001  3.3250001100000000
 29.2153812354917264  1.2342079878000001  3.3250001100000000
 30.6405216285022526  1.2342079878000001  3.3250001100000000
 33.4908028548917258  1.2342079878000001  3.3250001100000000
 34.9159432479022485  1.2342079878000001  3.3250001100000000
 37.7662244742917252  1.2342079878000001  3.3250001100000000
 39.1913648673022479  1.2342079878000001  3.3250001100000000
 42.0416460936917247  1.2342079878000001  3.3250001100000000
 43.4667864867022473  1.2342079878000001  3.3250001100000000
 46.3170677130917241  1.2342079878000001  3.3250001100000000
 47.7422081061022467  1.2342079878000001  3.3250001100000000
 50.5924893324917235  1.2342079878000001  3.3250001100000000
 52.0176297255022533  1.2342079878000001  3.3250001100000000
 54.8679109518917301  1.2342079878000001  3.3250001100000000
 56.2930513449022527  1.2342079878000001  3.3250001100000000
 59.1433325712917295  1.2342079878000001  3.3250001100000000
 60.5684729643022521  1.2342079878000001  3.3250001100000000
 63.4187541906917289  1.2342079878000001  3.3250001100000000
 64.8438945837022516  1.2342079878000001  3.3250001100000000
 67.6941758100917212  1.2342079878000001  3.3250001100000000
 69.1193162031022581  1.2342079878000001  3.3250001100000000
 71.9695974294917278  1.2342079878000001  3.3250001100000000
 73.3947378225022646  1.2342079878000001  3.3250001100000000
 76.2450190488917343  1.2342079878000001  3.3250001100000000
 77.6701594419022570  1.2342079878000001  3.3250001100000000
 80.5204406682917266  1.2342079878000001  3.3250001100000000
 81.9455810613022635  1.2342079878000001  3.3250001100000000
 84.7958622876917332  1.2342079878000001  3.3250001100000000
  1.4251405811290758  2.4684159756000001  3.3250001100000000
  2.8502811665335730  2.4684159756000001  3.3250001100000000
  5.7005622005290757  2.4684159756000001  3.3250001100000000
  7.1257027859335729  2.4684159756000001  3.3250001100000000
  9.9759838199290769  2.4684159756000001  3.3250001100000000
 11.4011244053335741  2.4684159756000001  3.3250001100000000
 14.2514054393290781  2.4684159756000001  3.3250001100000000
 15.6765460247335753  2.4684159756000001  3.3250001100000000
 18.5268270587290758  2.4684159756000001  3.3250001100000000
 19.9519676441335747  2.4684159756000001  3.3250001100000000
 22.8022486781290752  2.4684159756000001  3.3250001100000000
 24.2273892635335741  2.4684159756000001  3.3250001100000000
 27.0776702975290782  2.4684159756000001  3.3250001100000000
 28.5028108829335771  2.4684159756000001  3.3250001100000000
 31.3530919169290776  2.4684159756000001  3.3250001100000000
 32.7782325023335730  2.4684159756000001  3.3250001100000000
 35.6285135363290806  2.4684159756000001  3.3250001100000000
 37.0536541217335724  2.4684159756000001  3.3250001100000000
 39.9039351557290800  2.4684159756000001  3.3250001100000000
 41.3290757411335719  2.4684159756000001  3.3250001100000000
 44.1793567751290794  2.4684159756000001  3.3250001100000000
 45.6044973605335713  2.4684159756000001  3.3250001100000000
 48.4547783945290789  2.4684159756000001  3.3250001100000000
 49.8799189799335707  2.4684159756000001  3.3250001100000000
 52.7302000139290854  2.4684159756000001  3.3250001100000000
 54.1553405993335772  2.4684159756000001  3.3250001100000000
 57.0056216333290848  2.4684159756000001  3.3250001100000000
 58.4307622187335767  2.4684159756000001  3.3250001100000000
 61.2810432527290843  2.4684159756000001  3.3250001100000000
 62.7061838381335761  2.4684159756000001  3.3250001100000000
 65.5564648721290695  2.4684159756000001  3.3250001100000000
 66.9816054575335755  2.4684159756000001  3.3250001100000000
 69.8318864915290760  2.4684159756000001  3.3250001100000000
 71.2570270769335821  2.4684159756000001  3.3250001100000000
 74.1073081109290825  2.4684159756000001  3.3250001100000000
 75.5324486963335886  2.4684159756000001  3.3250001100000000
 78.3827297303290749  2.4684159756000001  3.3250001100000000
 79.8078703157335809  2.4684159756000001  3.3250001100000000
 82.6581513497290814  2.4684159756000001  3.3250001100000000
 84.0832919351335875  2.4684159756000001  3.3250001100000000
  0.7125702927022486  3.7026239634000002  3.3250001100000000
  3.5628515190917245  3.7026239634000002  3.3250001100000000
  4.9879919121022489  3.7026239634000002  3.3250001100000000
  7.8382731384917248  3.7026239634000002  3.3250001100000000
  9.2634135315022483  3.7026239634000002  3.3250001100000000
 12.1136947578917251  3.7026239634000002  3.3250001100000000
 13.5388351509022513  3.7026239634000002  3.3250001100000000
 16.3891163772917281  3.7026239634000002  3.3250001100000000
 17.8142567703022507  3.7026239634000002  3.3250001100000000
 20.6645379966917275  3.7026239634000002  3.3250001100000000
 22.0896783897022502  3.7026239634000002  3.3250001100000000
 24.9399596160917270  3.7026239634000002  3.3250001100000000
 26.3651000091022532  3.7026239634000002  3.3250001100000000
 29.2153812354917264  3.7026239634000002  3.3250001100000000
 30.6405216285022526  3.7026239634000002  3.3250001100000000
 33.4908028548917258  3.7026239634000002  3.3250001100000000
 34.9159432479022485  3.7026239634000002  3.3250001100000000
 37.7662244742917252  3.7026239634000002  3.3250001100000000
 39.1913648673022479  3.7026239634000002  3.3250001100000000
 42.0416460936917247  3.7026239634000002  3.3250001100000000
 43.4667864867022473  3.7026239634000002  3.3250001100000000
 46.3170677130917241  3.7026239634000002  3.3250001100000000
 47.7422081061022467  3.7026239634000002  3.3250001100000000
 50.5924893324917235  3.7026239634000002  3.3250001100000000
 52.0176297255022533  3.7026239634000002  3.3250001100000000
 54.8679109518917301  3.7026239634000002  3.3250001100000000
 56.2930513449022527  3.7026239634000002  3.3250001100000000
 59.1433325712917295  3.7026239634000002  3.3250001100000000
 60.5684729643022521  3.7026239634000002  3.3250001100000000
 63.4187541906917289  3.7026239634000002  3.3250001100000000
 64.8438945837022516  3.7026239634000002  3.3250001100000000
 67.6941758100917212  3.7026239634000002  3.3250001100000000
 69.1193162031022581  3.7026239634000002  3.3250001100000000
 71.9695974294917278  3.7026239634000002  3.3250001100000000
 73.3947378225022646  3.7026239634000002  3.3250001100000000
 76.2450190488917343  3.7026239634000002  3.3250001100000000
 77.6701594419022570  3.7026239634000002  3.3250001100000000
 80.5204406682917266  3.7026239634000002  3.3250001100000000
 81.9455810613022635  3.7026239634000002  3.3250001100000000
 84.7958622876917332  3.7026239634000002  3.3250001100000000
  1.4251405811290758  4.9368319512000003  3.3250001100000000
  2.8502811665335730  4.9368319512000003  3.3250001100000000
  5.7005622005290757  4.9368319512000003  3.3250001100000000
  7.1257027859335729  4.9368319512000003  3.3250001100000000
  9.9759838199290769  4.9368319512000003  3.3250001100000000
 11.4011244053335741  4.9368319512000003  3.3250001100000000
 14.2514054393290781  4.9368319512000003  3.3250001100000000
 15.6765460247335753  4.9368319512000003  3.3250001100000000
 18.5268270587290758  4.9368319512000003  3.3250001100000000
 19.9519676441335747  4.9368319512000003  3.3250001100000000
 22.8022486781290752  4.9368319512000003  3.3250001100000000
 24.2273892635335741  4.9368319512000003  3.3250001100000000
 27.0776702975290782  4.9368319512000003  3.3250001100000000
 28.5028108829335771  4.9368319512000003  3.3250001100000000
 31.3530919169290776  4.9368319512000003  3.3250001100000000
 32.7782325023335730  4.9368319512000003  3.3250001100000000
 35.6285135363290806  4.9368319512000003  3.3250001100000000
 37.0536541217335724  4.9368319512000003  3.3250001100000000
 39.9039351557290800  4.9368319512000003  3.3250001100000000
 41.3290757411335719  4.9368319512000003  3.3250001100000000
 44.1793567751290794  4.9368319512000003  3.3250001100000000
 45.6044973605335713  4.9368319512000003  3.3250001100000000
 48.4547783945290789  4.9368319512000003  3.3250001100000000
 49.8799189799335707  4.9368319512000003  3.3250001100000000
 52.7302000139290854  4.9368319512000003  3.3250001100000000
 54.1553405993335772  4.9368319512000003  3.3250001100000000
 57.0056216333290848  4.9368319512000003  3.3250001100000000
 58.4307622187335767  4.9368319512000003  3.3250001100000000
 61.2810432527290843  4.9368319512000003  3.3250001100000000
 62.7061838381335761  4.9368319512000003  3.3250001100000000
 65.5564648721290695  4.9368319512000003  3.3250001100000000
 66.9816054575335755  4.9368319512000003  3.3250001100000000
 69.8318864915290760  4.9368319512000003  3.3250001100000000
 71.2570270769335821  4.9368319512000003  3.3250001100000000
 74.1073081109290825  4.9368319512000003  3.3250001100000000
 75.5324486963335886  4.9368319512000003  3.3250001100000000
 78.3827297303290749  4.9368319512000003  3.3250001100000000
 79.8078703157335809  4.9368319512000003  3.3250001100000000
 82.6581513497290814  4.9368319512000003  3.3250001100000000
 84.0832919351335875  4.9368319512000003  3.3250001100000000
  0.7125702927022486  6.1710399389999999  3.3250001100000000
  3.5628515190917245  6.1710399389999999  3.3250001100000000
  4.9879919121022489  6.1710399389999999  3.3250001100000000
  7.8382731384917248  6.1710399389999999  3.3250001100000000
  9.2634135315022483  6.1710399389999999  3.3250001100000000
 12.1136947578917251  6.1710399389999999  3.3250001100000000
 13.5388351509022513  6.1710399389999999  3.3250001100000000
 16.3891163772917281  6.1710399389999999  3.3250001100000000
 17.8142567703022507  6.1710399389999999  3.3250001100000000
 20.6645379966917275  6.1710399389999999  3.3250001100000000
 22.0896783897022502  6.1710399389999999  3.3250001100000000
 24.9399596160917270  6.1710399389999999  3.3250001100000000
 26.3651000091022532  6.1710399389999999  3.3250001100000000
 29.2153812354917264  6.1710399389999999  3.3250001100000000
 30.6405216285022526  6.1710399389999999  3.3250001100000000
 33.4908028548917258  6.1710399389999999  3.3250001100000000
 34.9159432479022485  6.1710399389999999  3.3250001100000000
 37.7662244742917252  6.1710399389999999  3.3250001100000000
 39.1913648673022479  6.1710399389999999  3.3250001100000000
 42.0416460936917247  6.1710399389999999  3.3250001100000000
 43.4667864867022473  6.1710399389999999  3.3250001100000000
 46.3170677130917241  6.1710399389999999  3.3250001100000000
 47.7422081061022467  6.1710399389999999  3.3250001100000000
 50.5924893324917235  6.1710399389999999  3.3250001100000000
 52.0176297255022533  6.1710399389999999  3.3250001100000000
 54.8679109518917301  6.1710399389999999  3.3250001100000000
 56.2930513449022527  6.1710399389999999  3.3250001100000000
 59.1433325712917295  6.1710399389999999  3.3250001100000000
 60.5684729643022521  6.1710399389999999  3.3250001100000000
 63.4187541906917289  6.1710399389999999  3.3250001100000000
 64.8438945837022516  6.1710399389999999  3.3250001100000000
 67.6941758100917212  6.1710399389999999  3.3250001100000000
 69.1193162031022581  6.1710399389999999  3.3250001100000000
 71.9695974294917278  6.1710399389999999  3.3250001100000000
 73.3947378225022646  6.1710399389999999  3.3250001100000000
 76.2450190488917343  6.1710399389999999  3.3250001100000000
 77.6701594419022570  6.1710399389999999  3.3250001100000000
 80.5204406682917266  6.1710399389999999  3.3250001100000000
 81.9455810613022635  6.1710399389999999  3.3250001100000000
 84.7958622876917332  6.1710399389999999  3.3250001100000000
  1.4251405811290758  7.4052479268000004  3.3250001100000000
  2.8502811665335730  7.4052479268000004  3.3250001100000000
  5.7005622005290757  7.4052479268000004  3.3250001100000000
  7.1257027859335729  7.4052479268000004  3.3250001100000000
  9.9759838199290769  7.4052479268000004  3.3250001100000000
 11.4011244053335741  7.4052479268000004  3.3250001100000000
 14.2514054393290781  7.4052479268000004  3.3250001100000000
 15.6765460247335753  7.4052479268000004  3.3250001100000000
 18.5268270587290758  7.4052479268000004  3.3250001100000000
 19.9519676441335747  7.4052479268000004  3.3250001100000000
 22.8022486781290752  7.4052479268000004  3.3250001100000000
 24.2273892635335741  7.4052479268000004  3.3250001100000000
 27.0776702975290782  7.4052479268000004  3.3250001100000000
 28.5028108829335771  7.4052479268000004  3.3250001100000000
 31.3530919169290776  7.4052479268000004  3.3250001100000000
 32.7782325023335730  7.4052479268000004  3.3250001100000000
 35.6285135363290806  7.4052479268000004  3.3250001100000000
 37.0536541217335724  7.4052479268000004  3.3250001100000000
 39.9039351557290800  7.4052479268000004  3.3250001100000000
 41.3290757411335719  7.4052479268000004  3.3250001100000000
 44.1793567751290794  7.4052479268000004  3.3250001100000000
 45.6044973605335713  7.4052479268000004  3.3250001100000000
 48.4547783945290789  7.4052479268000004  3.3250001100000000
 49.8799189799335707  7.4052479268000004  3.3250001100000000
 52.7302000139290854  7.4052479268000004  3.3250001100000000
 54.1553405993335772  7.4052479268000004  3.3250001100000000
 57.0056216333290848  7.4052479268000004  3.3250001100000000
 58.4307622187335767  7.4052479268000004  3.3250001100000000
 61.2810432527290843  7.4052479268000004  3.3250001100000000
 62.7061838381335761  7.4052479268000004  3.3250001100000000
 65.5564648721290695  7.4052479268000004  3.3250001100000000
 66.9816054575335755  7.4052479268000004  3.3250001100000000
 69.8318864915290760  7.4052479268000004  3.3250001100000000
 71.2570270769335821  7.4052479268000004  3.3250001100000000
 74.1073081109290825  7.4052479268000004  3.3250001100000000
 75.5324486963335886  7.4052479268000004  3.3250001100000000
 78.3827297303290749  7.4052479268000004  3.3250001100000000
 79.8078703157335809  7.4052479268000004  3.3250001100000000
 82.6581513497290814  7.4052479268000004  3.3250001100000000
 84.0832919351335875  7.4052479268000004  3.3250001100000000
  0.7125702927022486  8.6394559146000010  3.3250001100000000
  3.5628515190917245  8.6394559146000010  3.3250001100000000
  4.9879919121022489  8.6394559146000010  3.3250001100000000
  7.8382731384917248  8.6394559146000010  3.3250001100000000
  9.2634135315022483  8.6394559146000010  3.3250001100000000
 12.1136947578917251  8.6394559146000010  3.3250001100000000
 13.5388351509022513  8.6394559146000010  3.3250001100000000
 16.3891163772917281  8.6394559146000010  3.3250001100000000
 17.8142567703022507  8.6394559146000010  3.3250001100000000
 20.6645379966917275  8.6394559146000010  3.3250001100000000
 22.0896783897022502  8.6394559146000010  3.3250001100000000
 24.9399596160917270  8.6394559146000010  3.3250001100000000
 26.3651000091022532  8.6394559146000010  3.3250001100000000
 29.2153812354917264  8.6394559146000010  3.3250001100000000
 30.6405216285022526  8.6394559146000010  3.3250001100000000
 33.4908028548917258  8.6394559146000010  3.3250001100000000
 34.9159432479022485  8.6394559146000010  3.3250001100000000
 37.7662244742917252  8.6394559146000010  3.3250001100000000
 39.1913648673022479  8.6394559146000010  3.3250001100000000
 42.0416460936917247  8.6394559146000010  3.3250001100000000
 43.4667864867022473  8.6394559146000010  3.3250001100000000
 46.3170677130917241  8.6394559146000010  3.3250001100000000
 47.7422081061022467  8.6394559146000010  3.3250001100000000
 50.5924893324917235  8.6394559146000010  3.3250001100000000
 52.0176297255022533  8.6394559146000010  3.3250001100000000
 54.8679109518917301  8.6394559146000010  3.3250001100000000
 56.2930513449022527  8.6394559146000010  3.3250001100000000
 59.1433325712917295  8.6394559146000010  3.3250001100000000
 60.5684729643022521  8.6394559146000010  3.3250001100000000
 63.4187541906917289  8.6394559146000010  3.3250001100000000
 64.8438945837022516  8.6394559146000010  3.3250001100000000
 67.6941758100917212  8.6394559146000010  3.3250001100000000
 69.1193162031022581  8.6394559146000010  3.3250001100000000
 71.9695974294917278  8.6394559146000010  3.3250001100000000
 73.3947378225022646  8.6394559146000010  3.3250001100000000
 76.2450190488917343  8.6394559146000010  3.3250001100000000
 77.6701594419022570  8.6394559146000010  3.3250001100000000
 80.5204406682917266  8.6394559146000010  3.3250001100000000
 81.9455810613022635  8.6394559146000010  3.3250001100000000
 84.7958622876917332  8.6394559146000010  3.3250001100000000
  1.4251405811290758  9.8736639024000006  3.3250001100000000
  2.8502811665335730  9.8736639024000006  3.3250001100000000
  5.7005622005290757  9.8736639024000006  3.3250001100000000
  7.1257027859335729  9.8736639024000006  3.3250001100000000
  9.9759838199290769  9.8736639024000006  3.3250001100000000
 11.4011244053335741  9.8736639024000006  3.3250001100000000
 14.2514054393290781  9.8736639024000006  3.3250001100000000
 15.6765460247335753  9.8736639024000006  3.3250001100000000
 18.5268270587290758  9.8736639024000006  3.3250001100000000
 19.9519676441335747  9.8736639024000006  3.3250001100000000
 22.8022486781290752  9.8736639024000006  3.3250001100000000
 24.2273892635335741  9.8736639024000006  3.3250001100000000
 27.0776702975290782  9.8736639024000006  3.3250001100000000
 28.5028108829335771  9.8736639024000006  3.3250001100000000
 31.3530919169290776  9.8736639024000006  3.3250001100000000
 32.7782325023335730  9.8736639024000006  3.3250001100000000
 35.6285135363290806  9.8736639024000006  3.3250001100000000
 37.0536541217335724  9.8736639024000006  3.3250001100000000
 39.9039351557290800  9.8736639024000006  3.3250001100000000
 41.3290757411335719  9.8736639024000006  3.3250001100000000
 44.1793567751290794  9.8736639024000006  3.3250001100000000
 45.6044973605335713  9.8736639024000006  3.3250001100000000
 48.4547783945290789  9.8736639024000006  3.3250001100000000
 49.8799189799335707  9.8736639024000006  3.3250001100000000
 52.7302000139290854  9.8736639024000006  3.3250001100000000
 54.1553405993335772  9.8736639024000006  3.3250001100000000
 57.0056216333290848  9.8736639024000006  3.3250001100000000
 58.4307622187335767  9.8736639024000006  3.3250001100000000
 61.2810432527290843  9.8736639024000006  3.3250001100000000
 62.7061838381335761  9.8736639024000006  3.3250001100000000
 65.5564648721290695  9.8736639024000006  3.3250001100000000
 66.9816054575335755  9.8736639024000006  3.3250001100000000
 69.8318864915290760  9.8736639024000006  3.3250001100000000
 71.2570270769335821  9.8736639024000006  3.3250001100000000
 74.1073081109290825  9.8736639024000006  3.3250001100000000
 75.5324486963335886  9.8736639024000006  3.3250001100000000
 78.3827297303290749  9.8736639024000006  3.3250001100000000
 79.8078703157335809  9.8736639024000006  3.3250001100000000
 82.6581513497290814  9.8736639024000006  3.3250001100000000
 84.0832919351335875  9.8736639024000006  3.3250001100000000
  0.7125702927022486 11.1078718902000002  3.3250001100000000
  3.5628515190917245 11.1078718902000002  3.3250001100000000
  4.9879919121022489 11.1078718902000002  3.3250001100000000
  7.8382731384917248 11.1078718902000002  3.3250001100000000
  9.2634135315022483 11.1078718902000002  3.3250001100000000
 12.1136947578917251 11.1078718902000002  3.3250001100000000
 13.5388351509022513 11.1078718902000002  3.3250001100000000
 16.3891163772917281 11.1078718902000002  3.3250001100000000
 17.8142567703022507 11.1078718902000002  3.3250001100000000
 20.6645379966917275 11.1078718902000002  3.3250001100000000
 22.0896783897022502 11.1078718902000002  3.3250001100000000
 24.9399596160917270 11.1078718902000002  3.3250001100000000
 26.3651000091022532 11.1078718902000002  3.3250001100000000
 29.2153812354917264 11.1078718902000002  3.3250001100000000
 30.6405216285022526 11.1078718902000002  3.3250001100000000
 33.4908028548917258 11.1078718902000002  3.3250001100000000
 34.9159432479022485 11.1078718902000002  3.3250001100000000
 37.7662244742917252 11.1078718902000002  3.3250001100000000
 39.1913648673022479 11.1078718902000002  3.3250001100000000
 42.0416460936917247 11.1078718902000002  3.3250001100000000
 43.4667864867022473 11.1078718902000002  3.3250001100000000
 46.3170677130917241 11.1078718902000002  3.3250001100000000
 47.7422081061022467 11.1078718902000002  3.3250001100000000
 50.5924893324917235 11.1078718902000002  3.3250001100000000
 52.0176297255022533 11.1078718902000002  3.3250001100000000
 54.8679109518917301 11.1078718902000002  3.3250001100000000
 56.2930513449022527 11.1078718902000002  3.3250001100000000
 59.1433325712917295 11.1078718902000002  3.3250001100000000
 60.5684729643022521 11.1078718902000002  3.3250001100000000
 63.4187541906917289 11.1078718902000002  3.3250001100000000
 64.8438945837022516 11.1078718902000002  3.3250001100000000
 67.6941758100917212 11.1078718902000002  3.3250001100000000
 69.1193162031022581 11.1078718902000002  3.3250001100000000
 71.9695974294917278 11.1078718902000002  3.3250001100000000
 73.3947378225022646 11.1078718902000002  3.3250001100000000
 76.2450190488917343 11.1078718902000002  3.3250001100000000
 77.6701594419022570 11.1078718902000002  3.3250001100000000
 80.5204406682917266 11.1078718902000002  3.3250001100000000
 81.9455810613022635 11.1078718902000002  3.3250001100000000
 84.7958622876917332 11.1078718902000002  3.3250001100000000
  1.4251405811290758 12.3420798779999998  3.3250001100000000
  2.8502811665335730 12.3420798779999998  3.3250001100000000
  5.7005622005290757 12.3420798779999998  3.3250001100000000
  7.1257027859335729 12.3420798779999998  3.3250001100000000
  9.9759838199290769 12.3420798779999998  3.3250001100000000
 11.4011244053335741 12.3420798779999998  3.3250001100000000
 14.2514054393290781 12.3420798779999998  3.3250001100000000
 15.6765460247335753 12.3420798779999998  3.3250001100000000
 18.5268270587290758 12.3420798779999998  3.3250001100000000
 19.9519676441335747 12.3420798779999998  3.3250001100000000
 22.8022486781290752 12.3420798779999998  3.3250001100000000
 24.2273892635335741 12.3420798779999998  3.3250001100000000
 27.0776702975290782 12.3420798779999998  3.3250001100000000
 28.5028108829335771 12.3420798779999998  3.3250001100000000
 31.3530919169290776 12.3420798779999998  3.3250001100000000
 32.7782325023335730 12.3420798779999998  3.3250001100000000
 35.6285135363290806 12.3420798779999998  3.3250001100000000
 37.0536541217335724 12.3420798779999998  3.3250001100000000
 39.9039351557290800 12.3420798779999998  3.3250001100000000
 41.3290757411335719 12.3420798779999998  3.3250001100000000
 44.1793567751290794 12.3420798779999998  3.3250001100000000
 45.6044973605335713 12.3420798779999998  3.3250001100000000
 48.4547783945290789 12.3420798779999998  3.3250001100000000
 49.8799189799335707 12.3420798779999998  3.3250001100000000
 52.7302000139290854 12.3420798779999998  3.3250001100000000
 54.1553405993335772 12.3420798779999998  3.3250001100000000
 57.0056216333290848 12.3420798779999998  3.3250001100000000
 58.4307622187335767 12.3420798779999998  3.3250001100000000
 61.2810432527290843 12.3420798779999998  3.3250001100000000
 62.7061838381335761 12.3420798779999998  3.3250001100000000
 65.5564648721290695 12.3420798779999998  3.3250001100000000
 66.9816054575335755 12.3420798779999998  3.3250001100000000
 69.8318864915290760 12.3420798779999998  3.3250001100000000
 71.2570270769335821 12.3420798779999998  3.3250001100000000
 74.1073081109290825 12.3420798779999998  3.3250001100000000
 75.5324486963335886 12.3420798779999998  3.3250001100000000
 78.3827297303290749 12.3420798779999998  3.3250001100000000
 79.8078703157335809 12.3420798779999998  3.3250001100000000
 82.6581513497290814 12.3420798779999998  3.3250001100000000
 84.0832919351335875 12.3420798779999998  3.3250001100000000
  0.7125702927022486 13.5762878657999995  3.3250001100000000
  3.5628515190917245 13.5762878657999995  3.3250001100000000
  4.9879919121022489 13.5762878657999995  3.3250001100000000
  7.8382731384917248 13.5762878657999995  3.3250001100000000
  9.2634135315022483 13.5762878657999995  3.3250001100000000
 12.1136947578917251 13.5762878657999995  3.3250001100000000
 13.5388351509022513 13.5762878657999995  3.3250001100000000
 16.3891163772917281 13.5762878657999995  3.3250001100000000
 17.8142567703022507 13.5762878657999995  3.3250001100000000
 20.6645379966917275 13.5762878657999995  3.3250001100000000
 22.0896783897022502 13.5762878657999995  3.3250001100000000
 24.9399596160917270 13.5762878657999995  3.3250001100000000
 26.3651000091022532 13.5762878657999995  3.3250001100000000
 29.2153812354917264 13.5762878657999995  3.3250001100000000
 30.6405216285022526 13.5762878657999995  3.3250001100000000
 33.4908028548917258 13.5762878657999995  3.3250001100000000
 34.9159432479022485 13.5762878657999995  3.3250001100000000
 37.7662244742917252 13.5762878657999995  3.3250001100000000
 39.1913648673022479 13.5762878657999995  3.3250001100000000
 42.0416460936917247 13.5762878657999995  3.3250001100000000
 43.4667864867022473 13.5762878657999995  3.3250001100000000
 46.3170677130917241 13.5762878657999995  3.3250001100000000
 47.7422081061022467 13.5762878657999995  3.3250001100000000
 50.5924893324917235 13.5762878657999995  3.3250001100000000
 52.0176297255022533 13.5762878657999995  3.3250001100000000
 54.8679109518917301 13.5762878657999995  3.3250001100000000
 56.2930513449022527 13.5762878657999995  3.3250001100000000
 59.1433325712917295 13.5762878657999995  3.3250001100000000
 60.5684729643022521 13.5762878657999995  3.3250001100000000
 63.4187541906917289 13.5762878657999995  3.3250001100000000
 64.8438945837022516 13.5762878657999995  3.3250001100000000
 67.6941758100917212 13.5762878657999995  3.3250001100000000
 69.1193162031022581 13.5762878657999995  3.3250001100000000
 71.9695974294917278 13.5762878657999995  3.3250001100000000
 73.3947378225022646 13.5762878657999995  3.3250001100000000
 76.2450190488917343 13.5762878657999995  3.3250001100000000
 77.6701594419022570 13.5762878657999995  3.3250001100000000
 80.5204406682917266 13.5762878657999995  3.3250001100000000
 81.9455810613022635 13.5762878657999995  3.3250001100000000
 84.7958622876917332 13.5762878657999995  3.3250001100000000
  1.4251405811290758 14.8104958536000009  3.3250001100000000
  2.8502811665335730 14.8104958536000009  3.3250001100000000
  5.7005622005290757 14.8104958536000009  3.3250001100000000
  7.1257027859335729 14.8104958536000009  3.3250001100000000
  9.9759838199290769 14.8104958536000009  3.3250001100000000
 11.4011244053335741 14.8104958536000009  3.3250001100000000
 14.2514054393290781 14.8104958536000009  3.3250001100000000