New structure
1.0
        4.2608451843         0.0000000000         0.0000000000
        0.0000000000         2.4599997997         0.0000000000
        0.0000000000         0.0000000000        10.0000000000
    C
    4
Cartesian
     0.710140822         1.229999827         0.000000000
     1.420281389         0.000000000         0.000000000
     2.840563287         0.000000000         0.000000000
     3.550704236         1.229999900         0.000000000
