POSCAR for generated by WannierTools
1.0
    9.840000    0.000000    0.000000
   -1.230000    2.130423    0.000000
    0.000000    0.000000  100.000000
C     
    80
Direct
    0.083333    0.666667    0.000000        C
    0.333333    0.666667    0.000000        C
    0.583333    0.666667    0.000000        C
    0.833333    0.666667    0.000000        C
    0.166667    0.333333    0.000000        C
    0.416667    0.333333    0.000000        C
    0.666667    0.333333    0.000000        C
    0.916667    0.333333    0.000000        C
    0.083333    0.666667    0.100000        C
    0.333333    0.666667    0.100000        C
    0.583333    0.666667    0.100000        C
    0.833333    0.666667    0.100000        C
    0.166667    0.333333    0.100000        C
    0.416667    0.333333    0.100000        C
    0.666667    0.333333    0.100000        C
    0.916667    0.333333    0.100000        C
    0.083333    0.666667    0.200000        C
    0.333333    0.666667    0.200000        C
    0.583333    0.666667    0.200000        C
    0.833333    0.666667    0.200000        C
    0.166667    0.333333    0.200000        C
    0.416667    0.333333    0.200000        C
    0.666667    0.333333    0.200000        C
    0.916667    0.333333    0.200000        C
    0.083333    0.666667    0.300000        C
    0.333333    0.666667    0.300000        C
    0.583333    0.666667    0.300000        C
    0.833333    0.666667    0.300000        C
    0.166667    0.333333    0.300000        C
    0.416667    0.333333    0.300000        C
    0.666667    0.333333    0.300000        C
    0.916667    0.333333    0.300000        C
    0.083333    0.666667    0.400000        C
    0.333333    0.666667    0.400000        C
    0.583333    0.666667    0.400000        C
    0.833333    0.666667    0.400000        C
    0.166667    0.333333    0.400000        C
    0.416667    0.333333    0.400000        C
    0.666667    0.333333    0.400000        C
    0.916667    0.333333    0.400000        C
    0.083333    0.666667    0.500000        C
    0.333333    0.666667    0.500000        C
    0.583333    0.666667    0.500000        C
    0.833333    0.666667    0.500000        C
    0.166667    0.333333    0.500000        C
    0.416667    0.333333    0.500000        C
    0.666667    0.333333    0.500000        C
    0.916667    0.333333    0.500000        C
    0.083333    0.666667    0.600000        C
    0.333333    0.666667    0.600000        C
    0.583333    0.666667    0.600000        C
    0.833333    0.666667    0.600000        C
    0.166667    0.333333    0.600000        C
    0.416667    0.333333    0.600000        C
    0.666667    0.333333    0.600000        C
    0.916667    0.333333    0.600000        C
    0.083333    0.666667    0.700000        C
    0.333333    0.666667    0.700000        C
    0.583333    0.666667    0.700000        C
    0.833333    0.666667    0.700000        C
    0.166667    0.333333    0.700000        C
    0.416667    0.333333    0.700000        C
    0.666667    0.333333    0.700000        C
    0.916667    0.333333    0.700000        C
    0.083333    0.666667    0.800000        C
    0.333333    0.666667    0.800000        C
    0.583333    0.666667    0.800000        C
    0.833333    0.666667    0.800000        C
    0.166667    0.333333    0.800000        C
    0.416667    0.333333    0.800000        C
    0.666667    0.333333    0.800000        C
    0.916667    0.333333    0.800000        C
    0.083333    0.666667    0.900000        C
    0.333333    0.666667    0.900000        C
    0.583333    0.666667    0.900000        C
    0.833333    0.666667    0.900000        C
    0.166667    0.333333    0.900000        C
    0.416667    0.333333    0.900000        C
    0.666667    0.333333    0.900000        C
    0.916667    0.333333    0.900000        C
