Rotated POSCAR by SURFACE card in wt.in by WannierTools
1.0
    9.840000    0.000000    0.000000
   -1.230000    2.130423    0.000000
    0.000000    0.000000   10.000000
C     
     8
Direct
    0.083333    0.666667    0.000000        C
    0.333333    0.666667    0.000000        C
    0.583333    0.666667    0.000000        C
    0.833333    0.666667    0.000000        C
    0.166667    0.333333    0.000000        C
    0.416667    0.333333    0.000000        C
    0.666667    0.333333    0.000000        C
    0.916667    0.333333    0.000000        C
