New structure
1.0
      196.8000030518         0.0000000000         0.0000000000
       -1.2300003028         2.1304223626         0.0000000000
        0.0000000000         0.0000000000        10.0000000000
    C
  160
Cartesian
    -0.000000171         1.420281617         0.000000000
    98.400000530         1.420281617         0.000000000
     2.459999996         1.420281617         0.000000000
   100.859998222         1.420281617         0.000000000
     4.919999887         1.420281617         0.000000000
   103.319995915         1.420281617         0.000000000
     7.380000145         1.420281617         0.000000000
   105.780005337         1.420281617         0.000000000
     9.840000037         1.420281617         0.000000000
   108.240003029         1.420281617         0.000000000
    12.300000661         1.420281617         0.000000000
   110.700000721         1.420281617         0.000000000
    14.759999820         1.420281617         0.000000000
   113.159998413         1.420281617         0.000000000
    17.220000444         1.420281617         0.000000000
   115.620007835         1.420281617         0.000000000
    19.679999603         1.420281617         0.000000000
   118.080005528         1.420281617         0.000000000
    22.140000228         1.420281617         0.000000000
   120.540003220         1.420281617         0.000000000
    24.599999386         1.420281617         0.000000000
   123.000000912         1.420281617         0.000000000
    27.060000011         1.420281617         0.000000000
   125.459998604         1.420281617         0.000000000
    29.520000635         1.420281617         0.000000000
   127.920008026         1.420281617         0.000000000
    31.980001260         1.420281617         0.000000000
   130.380005718         1.420281617         0.000000000
    34.439998952         1.420281617         0.000000000
   132.840003410         1.420281617         0.000000000
    36.899999577         1.420281617         0.000000000
   135.300001103         1.420281617         0.000000000
    39.360000201         1.420281617         0.000000000
   137.759998795         1.420281617         0.000000000
    41.820000826         1.420281617         0.000000000
   140.220008217         1.420281617         0.000000000
    44.280001451         1.420281617         0.000000000
   142.680005909         1.420281617         0.000000000
    46.739999143         1.420281617         0.000000000
   145.140003601         1.420281617         0.000000000
    49.199999767         1.420281617         0.000000000
   147.600001293         1.420281617         0.000000000
    51.660003325         1.420281617         0.000000000
   150.059998985         1.420281617         0.000000000
    54.120001017         1.420281617         0.000000000
   152.520008408         1.420281617         0.000000000
    56.579998709         1.420281617         0.000000000
   154.979994370         1.420281617         0.000000000
    59.040002266         1.420281617         0.000000000
   157.440003792         1.420281617         0.000000000
    61.499999958         1.420281617         0.000000000
   159.900001484         1.420281617         0.000000000
    63.960003515         1.420281617         0.000000000
   162.359999176         1.420281617         0.000000000
    66.420001207         1.420281617         0.000000000
   164.820008598         1.420281617         0.000000000
    68.879998900         1.420281617         0.000000000
   167.279994560         1.420281617         0.000000000
    71.340002457         1.420281617         0.000000000
   169.740003983         1.420281617         0.000000000
    73.800000149         1.420281617         0.000000000
   172.200001675         1.420281617         0.000000000
    76.260003706         1.420281617         0.000000000
   174.659999367         1.420281617         0.000000000
    78.720001398         1.420281617         0.000000000
   177.120008789         1.420281617         0.000000000
    81.179999090         1.420281617         0.000000000
   179.579994751         1.420281617         0.000000000
    83.640002647         1.420281617         0.000000000
   182.040004173         1.420281617         0.000000000
    86.100000340         1.420281617         0.000000000
   184.500001865         1.420281617         0.000000000
    88.560003897         1.420281617         0.000000000
   186.959999558         1.420281617         0.000000000
    91.020001589         1.420281617         0.000000000
   189.420008980         1.420281617         0.000000000
    93.479999281         1.420281617         0.000000000
   191.879994942         1.420281617         0.000000000
    95.940002838         1.420281617         0.000000000
   194.340004364         1.420281617         0.000000000
     1.229999851         0.710140745         0.000000000
    99.629999911         0.710140745         0.000000000
     3.689999743         0.710140745         0.000000000
   102.089997603         0.710140745         0.000000000
     6.149999634         0.710140745         0.000000000
   104.549995295         0.710140745         0.000000000
     8.610000259         0.710140745         0.000000000
   107.010004717         0.710140745         0.000000000
    11.070000150         0.710140745         0.000000000
   109.470002409         0.710140745         0.000000000
    13.530000042         0.710140745         0.000000000
   111.930000102         0.710140745         0.000000000
    15.990000667         0.710140745         0.000000000
   114.389997794         0.710140745         0.000000000
    18.449999825         0.710140745         0.000000000
   116.849995486         0.710140745         0.000000000
    20.910000450         0.710140745         0.000000000
   119.310004908         0.710140745         0.000000000
    23.369999608         0.710140745         0.000000000
   121.770002600         0.710140745         0.000000000
    25.829998766         0.710140745         0.000000000
   124.230000292         0.710140745         0.000000000
    28.289999391         0.710140745         0.000000000
   126.689997984         0.710140745         0.000000000
    30.750000016         0.710140745         0.000000000
   129.149995676         0.710140745         0.000000000
    33.210000640         0.710140745         0.000000000
   131.610005099         0.710140745         0.000000000
    35.670001265         0.710140745         0.000000000
   134.070002791         0.710140745         0.000000000
    38.129998957         0.710140745         0.000000000
   136.530000483         0.710140745         0.000000000
    40.589999582         0.710140745         0.000000000
   138.989998175         0.710140745         0.000000000
    43.050000206         0.710140745         0.000000000
   141.449995867         0.710140745         0.000000000
    45.510000831         0.710140745         0.000000000
   143.910005290         0.710140745         0.000000000
    47.970001456         0.710140745         0.000000000
   146.370002982         0.710140745         0.000000000
    50.429999148         0.710140745         0.000000000
   148.830000674         0.710140745         0.000000000
    52.890002705         0.710140745         0.000000000
   151.290010096         0.710140745         0.000000000
    55.350000397         0.710140745         0.000000000
   153.749996058         0.710140745         0.000000000
    57.809998089         0.710140745         0.000000000
   156.210005480         0.710140745         0.000000000
    60.270001646         0.710140745         0.000000000
   158.670003172         0.710140745         0.000000000
    62.729999339         0.710140745         0.000000000
   161.130000864         0.710140745         0.000000000
    65.190002896         0.710140745         0.000000000
   163.590010287         0.710140745         0.000000000
    67.650000588         0.710140745         0.000000000
   166.049996249         0.710140745         0.000000000
    70.109998280         0.710140745         0.000000000
   168.510005671         0.710140745         0.000000000
    72.570001837         0.710140745         0.000000000
   170.970003363         0.710140745         0.000000000
    75.029999529         0.710140745         0.000000000
   173.430001055         0.710140745         0.000000000
    77.490003087         0.710140745         0.000000000
   175.890010478         0.710140745         0.000000000
    79.950000779         0.710140745         0.000000000
   178.349996439         0.710140745         0.000000000
    82.409998471         0.710140745         0.000000000
   180.810005862         0.710140745         0.000000000
    84.870002028         0.710140745         0.000000000
   183.270003554         0.710140745         0.000000000
    87.329999720         0.710140745         0.000000000
   185.730001246         0.710140745         0.000000000
    89.790003277         0.710140745         0.000000000
   188.190010668         0.710140745         0.000000000
    92.250000969         0.710140745         0.000000000
   190.649996630         0.710140745         0.000000000
    94.709998661         0.710140745         0.000000000
   193.110006052         0.710140745         0.000000000
    97.170002219         0.710140745         0.000000000
   195.570003745         0.710140745         0.000000000
