POSCAR for generated by WannierTools
1.0
   17.043381    0.000000    0.000000
    0.000000    2.460000    0.000000
    0.000000    0.000000  100.000000
C     
   160
Direct
    0.208333    0.500000    0.000000        C
    0.458333    0.500000    0.000000        C
    0.708333    0.500000    0.000000        C
    0.958333    0.500000    0.000000        C
    0.083333    0.000000    0.000000        C
    0.333333    0.000000    0.000000        C
    0.583333    0.000000    0.000000        C
    0.833333    0.000000    0.000000        C
    0.041667    0.500000    0.000000        C
    0.291667    0.500000    0.000000        C
    0.541667    0.500000    0.000000        C
    0.791667    0.500000    0.000000        C
    0.166667    0.000000    0.000000        C
    0.416667    0.000000    0.000000        C
    0.666667    0.000000    0.000000        C
    0.916667    0.000000    0.000000        C
    0.208333    0.500000    0.100000        C
    0.458333    0.500000    0.100000        C
    0.708333    0.500000    0.100000        C
    0.958333    0.500000    0.100000        C
    0.083333    0.000000    0.100000        C
    0.333333    0.000000    0.100000        C
    0.583333    0.000000    0.100000        C
    0.833333    0.000000    0.100000        C
    0.041667    0.500000    0.100000        C
    0.291667    0.500000    0.100000        C
    0.541667    0.500000    0.100000        C
    0.791667    0.500000    0.100000        C
    0.166667    0.000000    0.100000        C
    0.416667    0.000000    0.100000        C
    0.666667    0.000000    0.100000        C
    0.916667    0.000000    0.100000        C
    0.208333    0.500000    0.200000        C
    0.458333    0.500000    0.200000        C
    0.708333    0.500000    0.200000        C
    0.958333    0.500000    0.200000        C
    0.083333    0.000000    0.200000        C
    0.333333    0.000000    0.200000        C
    0.583333    0.000000    0.200000        C
    0.833333    0.000000    0.200000        C
    0.041667    0.500000    0.200000        C
    0.291667    0.500000    0.200000        C
    0.541667    0.500000    0.200000        C
    0.791667    0.500000    0.200000        C
    0.166667    0.000000    0.200000        C
    0.416667    0.000000    0.200000        C
    0.666667    0.000000    0.200000        C
    0.916667    0.000000    0.200000        C
    0.208333    0.500000    0.300000        C
    0.458333    0.500000    0.300000        C
    0.708333    0.500000    0.300000        C
    0.958333    0.500000    0.300000        C
    0.083333    0.000000    0.300000        C
    0.333333    0.000000    0.300000        C
    0.583333    0.000000    0.300000        C
    0.833333    0.000000    0.300000        C
    0.041667    0.500000    0.300000        C
    0.291667    0.500000    0.300000        C
    0.541667    0.500000    0.300000        C
    0.791667    0.500000    0.300000        C
    0.166667    0.000000    0.300000        C
    0.416667    0.000000    0.300000        C
    0.666667    0.000000    0.300000        C
    0.916667    0.000000    0.300000        C
    0.208333    0.500000    0.400000        C
    0.458333    0.500000    0.400000        C
    0.708333    0.500000    0.400000        C
    0.958333    0.500000    0.400000        C
    0.083333    0.000000    0.400000        C
    0.333333    0.000000    0.400000        C
    0.583333    0.000000    0.400000        C
    0.833333    0.000000    0.400000        C
    0.041667    0.500000    0.400000        C
    0.291667    0.500000    0.400000        C
    0.541667    0.500000    0.400000        C
    0.791667    0.500000    0.400000        C
    0.166667    0.000000    0.400000        C
    0.416667    0.000000    0.400000        C
    0.666667    0.000000    0.400000        C
    0.916667    0.000000    0.400000        C
    0.208333    0.500000    0.500000        C
    0.458333    0.500000    0.500000        C
    0.708333    0.500000    0.500000        C
    0.958333    0.500000    0.500000        C
    0.083333    0.000000    0.500000        C
    0.333333    0.000000    0.500000        C
    0.583333    0.000000    0.500000        C
    0.833333    0.000000    0.500000        C
    0.041667    0.500000    0.500000        C
    0.291667    0.500000    0.500000        C
    0.541667    0.500000    0.500000        C
    0.791667    0.500000    0.500000        C
    0.166667    0.000000    0.500000        C
    0.416667    0.000000    0.500000        C
    0.666667    0.000000    0.500000        C
    0.916667    0.000000    0.500000        C
    0.208333    0.500000    0.600000        C
    0.458333    0.500000    0.600000        C
    0.708333    0.500000    0.600000        C
    0.958333    0.500000    0.600000        C
    0.083333    0.000000    0.600000        C
    0.333333    0.000000    0.600000        C
    0.583333    0.000000    0.600000        C
    0.833333    0.000000    0.600000        C
    0.041667    0.500000    0.600000        C
    0.291667    0.500000    0.600000        C
    0.541667    0.500000    0.600000        C
    0.791667    0.500000    0.600000        C
    0.166667    0.000000    0.600000        C
    0.416667    0.000000    0.600000        C
    0.666667    0.000000    0.600000        C
    0.916667    0.000000    0.600000        C
    0.208333    0.500000    0.700000        C
    0.458333    0.500000    0.700000        C
    0.708333    0.500000    0.700000        C
    0.958333    0.500000    0.700000        C
    0.083333    0.000000    0.700000        C
    0.333333    0.000000    0.700000        C
    0.583333    0.000000    0.700000        C
    0.833333    0.000000    0.700000        C
    0.041667    0.500000    0.700000        C
    0.291667    0.500000    0.700000        C
    0.541667    0.500000    0.700000        C
    0.791667    0.500000    0.700000        C
    0.166667    0.000000    0.700000        C
    0.416667    0.000000    0.700000        C
    0.666667    0.000000    0.700000        C
    0.916667    0.000000    0.700000        C
    0.208333    0.500000    0.800000        C
    0.458333    0.500000    0.800000        C
    0.708333    0.500000    0.800000        C
    0.958333    0.500000    0.800000        C
    0.083333    0.000000    0.800000        C
    0.333333    0.000000    0.800000        C
    0.583333    0.000000    0.800000        C
    0.833333    0.000000    0.800000        C
    0.041667    0.500000    0.800000        C
    0.291667    0.500000    0.800000        C
    0.541667    0.500000    0.800000        C
    0.791667    0.500000    0.800000        C
    0.166667    0.000000    0.800000        C
    0.416667    0.000000    0.800000        C
    0.666667    0.000000    0.800000        C
    0.916667    0.000000    0.800000        C
    0.208333    0.500000    0.900000        C
    0.458333    0.500000    0.900000        C
    0.708333    0.500000    0.900000        C
    0.958333    0.500000    0.900000        C
    0.083333    0.000000    0.900000        C
    0.333333    0.000000    0.900000        C
    0.583333    0.000000    0.900000        C
    0.833333    0.000000    0.900000        C
    0.041667    0.500000    0.900000        C
    0.291667    0.500000    0.900000        C
    0.541667    0.500000    0.900000        C
    0.791667    0.500000    0.900000        C
    0.166667    0.000000    0.900000        C
    0.416667    0.000000    0.900000        C
    0.666667    0.000000    0.900000        C
    0.916667    0.000000    0.900000        C
