New structure
1.0
        4.2608451843         0.0000000000         0.0000000000
        0.0000000000         2.4599997997         0.0000000000
        0.0000000000         0.0000000000        10.0000000000
    C
    4
Direct
     0.833333313         0.500000000         0.000000000
     0.333333254         0.000000000         0.000000000
     0.166666657         0.499999970         0.000000000
     0.666666627         0.000000000         0.000000000
