POSCAR for slab defined by SURFACE card and Nslab and Vacuum_thickness_in_Angstrom in wt.in by WannierTools
1.0
  204.520569    0.000000    0.000000
    0.000000    2.460000    0.000000
    0.000000    0.000000  110.583544
C     
  1920
Cartesian
    3.550682    1.230000   14.791772        C
    3.550682    1.230000   24.791772        C
    3.550682    1.230000   34.791772        C
    3.550682    1.230000   44.791772        C
    3.550682    1.230000   54.791772        C
    3.550682    1.230000   64.791772        C
    3.550682    1.230000   74.791772        C
    3.550682    1.230000   84.791772        C
    3.550682    1.230000   94.791772        C
    3.550682    1.230000  104.791772        C
   29.115753    1.230000   14.791772        C
   29.115753    1.230000   24.791772        C
   29.115753    1.230000   34.791772        C
   29.115753    1.230000   44.791772        C
   29.115753    1.230000   54.791772        C
   29.115753    1.230000   64.791772        C
   29.115753    1.230000   74.791772        C
   29.115753    1.230000   84.791772        C
   29.115753    1.230000   94.791772        C
   29.115753    1.230000  104.791772        C
   54.680824    1.230000   14.791772        C
   54.680824    1.230000   24.791772        C
   54.680824    1.230000   34.791772        C
   54.680824    1.230000   44.791772        C
   54.680824    1.230000   54.791772        C
   54.680824    1.230000   64.791772        C
   54.680824    1.230000   74.791772        C
   54.680824    1.230000   84.791772        C
   54.680824    1.230000   94.791772        C
   54.680824    1.230000  104.791772        C
   80.245895    1.230000   14.791772        C
   80.245895    1.230000   24.791772        C
   80.245895    1.230000   34.791772        C
   80.245895    1.230000   44.791772        C
   80.245895    1.230000   54.791772        C
   80.245895    1.230000   64.791772        C
   80.245895    1.230000   74.791772        C
   80.245895    1.230000   84.791772        C
   80.245895    1.230000   94.791772        C
   80.245895    1.230000  104.791772        C
  105.810966    1.230000   14.791772        C
  105.810966    1.230000   24.791772        C
  105.810966    1.230000   34.791772        C
  105.810966    1.230000   44.791772        C
  105.810966    1.230000   54.791772        C
  105.810966    1.230000   64.791772        C
  105.810966    1.230000   74.791772        C
  105.810966    1.230000   84.791772        C
  105.810966    1.230000   94.791772        C
  105.810966    1.230000  104.791772        C
  131.376037    1.230000   14.791772        C
  131.376037    1.230000   24.791772        C
  131.376037    1.230000   34.791772        C
  131.376037    1.230000   44.791772        C
  131.376037    1.230000   54.791772        C
  131.376037    1.230000   64.791772        C
  131.376037    1.230000   74.791772        C
  131.376037    1.230000   84.791772        C
  131.376037    1.230000   94.791772        C
  131.376037    1.230000  104.791772        C
  156.941108    1.230000   14.791772        C
  156.941108    1.230000   24.791772        C
  156.941108    1.230000   34.791772        C
  156.941108    1.230000   44.791772        C
  156.941108    1.230000   54.791772        C
  156.941108    1.230000   64.791772        C
  156.941108    1.230000   74.791772        C
  156.941108    1.230000   84.791772        C
  156.941108    1.230000   94.791772        C
  156.941108    1.230000  104.791772        C
  182.506179    1.230000   14.791772        C
  182.506179    1.230000   24.791772        C
  182.506179    1.230000   34.791772        C
  182.506179    1.230000   44.791772        C
  182.506179    1.230000   54.791772        C
  182.506179    1.230000   64.791772        C
  182.506179    1.230000   74.791772        C
  182.506179    1.230000   84.791772        C
  182.506179    1.230000   94.791772        C
  182.506179    1.230000  104.791772        C
    7.811459    1.230000   14.791772        C
    7.811459    1.230000   24.791772        C
    7.811459    1.230000   34.791772        C
    7.811459    1.230000   44.791772        C
    7.811459    1.230000   54.791772        C
    7.811459    1.230000   64.791772        C
    7.811459    1.230000   74.791772        C
    7.811459    1.230000   84.791772        C
    7.811459    1.230000   94.791772        C
    7.811459    1.230000  104.791772        C
   33.376530    1.230000   14.791772        C
   33.376530    1.230000   24.791772        C
   33.376530    1.230000   34.791772        C
   33.376530    1.230000   44.791772        C
   33.376530    1.230000   54.791772        C
   33.376530    1.230000   64.791772        C
   33.376530    1.230000   74.791772        C
   33.376530    1.230000   84.791772        C
   33.376530    1.230000   94.791772        C
   33.376530    1.230000  104.791772        C
   58.941601    1.230000   14.791772        C
   58.941601    1.230000   24.791772        C
   58.941601    1.230000   34.791772        C
   58.941601    1.230000   44.791772        C
   58.941601    1.230000   54.791772        C
   58.941601    1.230000   64.791772        C
   58.941601    1.230000   74.791772        C
   58.941601    1.230000   84.791772        C
   58.941601    1.230000   94.791772        C
   58.941601    1.230000  104.791772        C
   84.506672    1.230000   14.791772        C
   84.506672    1.230000   24.791772        C
   84.506672    1.230000   34.791772        C
   84.506672    1.230000   44.791772        C
   84.506672    1.230000   54.791772        C
   84.506672    1.230000   64.791772        C
   84.506672    1.230000   74.791772        C
   84.506672    1.230000   84.791772        C
   84.506672    1.230000   94.791772        C
   84.506672    1.230000  104.791772        C
  110.071743    1.230000   14.791772        C
  110.071743    1.230000   24.791772        C
  110.071743    1.230000   34.791772        C
  110.071743    1.230000   44.791772        C
  110.071743    1.230000   54.791772        C
  110.071743    1.230000   64.791772        C
  110.071743    1.230000   74.791772        C
  110.071743    1.230000   84.791772        C
  110.071743    1.230000   94.791772        C
  110.071743    1.230000  104.791772        C
  135.636814    1.230000   14.791772        C
  135.636814    1.230000   24.791772        C
  135.636814    1.230000   34.791772        C
  135.636814    1.230000   44.791772        C
  135.636814    1.230000   54.791772        C
  135.636814    1.230000   64.791772        C
  135.636814    1.230000   74.791772        C
  135.636814    1.230000   84.791772        C
  135.636814    1.230000   94.791772        C
  135.636814    1.230000  104.791772        C
  161.201885    1.230000   14.791772        C
  161.201885    1.230000   24.791772        C
  161.201885    1.230000   34.791772        C
  161.201885    1.230000   44.791772        C
  161.201885    1.230000   54.791772        C
  161.201885    1.230000   64.791772        C
  161.201885    1.230000   74.791772        C
  161.201885    1.230000   84.791772        C
  161.201885    1.230000   94.791772        C
  161.201885    1.230000  104.791772        C
  186.766956    1.230000   14.791772        C
  186.766956    1.230000   24.791772        C
  186.766956    1.230000   34.791772        C
  186.766956    1.230000   44.791772        C
  186.766956    1.230000   54.791772        C
  186.766956    1.230000   64.791772        C
  186.766956    1.230000   74.791772        C
  186.766956    1.230000   84.791772        C
  186.766956    1.230000   94.791772        C
  186.766956    1.230000  104.791772        C
   12.072440    1.230000   14.791772        C
   12.072440    1.230000   24.791772        C
   12.072440    1.230000   34.791772        C
   12.072440    1.230000   44.791772        C
   12.072440    1.230000   54.791772        C
   12.072440    1.230000   64.791772        C
   12.072440    1.230000   74.791772        C
   12.072440    1.230000   84.791772        C
   12.072440    1.230000   94.791772        C
   12.072440    1.230000  104.791772        C
   37.637511    1.230000   14.791772        C
   37.637511    1.230000   24.791772        C
   37.637511    1.230000   34.791772        C
   37.637511    1.230000   44.791772        C
   37.637511    1.230000   54.791772        C
   37.637511    1.230000   64.791772        C
   37.637511    1.230000   74.791772        C
   37.637511    1.230000   84.791772        C
   37.637511    1.230000   94.791772        C
   37.637511    1.230000  104.791772        C
   63.202582    1.230000   14.791772        C
   63.202582    1.230000   24.791772        C
   63.202582    1.230000   34.791772        C
   63.202582    1.230000   44.791772        C
   63.202582    1.230000   54.791772        C
   63.202582    1.230000   64.791772        C
   63.202582    1.230000   74.791772        C
   63.202582    1.230000   84.791772        C
   63.202582    1.230000   94.791772        C
   63.202582    1.230000  104.791772        C
   88.767654    1.230000   14.791772        C
   88.767654    1.230000   24.791772        C
   88.767654    1.230000   34.791772        C
   88.767654    1.230000   44.791772        C
   88.767654    1.230000   54.791772        C
   88.767654    1.230000   64.791772        C
   88.767654    1.230000   74.791772        C
   88.767654    1.230000   84.791772        C
   88.767654    1.230000   94.791772        C
   88.767654    1.230000  104.791772        C
  114.332725    1.230000   14.791772        C
  114.332725    1.230000   24.791772        C
  114.332725    1.230000   34.791772        C
  114.332725    1.230000   44.791772        C
  114.332725    1.230000   54.791772        C
  114.332725    1.230000   64.791772        C
  114.332725    1.230000   74.791772        C
  114.332725    1.230000   84.791772        C
  114.332725    1.230000   94.791772        C
  114.332725    1.230000  104.791772        C
  139.897796    1.230000   14.791772        C
  139.897796    1.230000   24.791772        C
  139.897796    1.230000   34.791772        C
  139.897796    1.230000   44.791772        C
  139.897796    1.230000   54.791772        C
  139.897796    1.230000   64.791772        C
  139.897796    1.230000   74.791772        C
  139.897796    1.230000   84.791772        C
  139.897796    1.230000   94.791772        C
  139.897796    1.230000  104.791772        C
  165.462867    1.230000   14.791772        C
  165.462867    1.230000   24.791772        C
  165.462867    1.230000   34.791772        C
  165.462867    1.230000   44.791772        C
  165.462867    1.230000   54.791772        C
  165.462867    1.230000   64.791772        C
  165.462867    1.230000   74.791772        C
  165.462867    1.230000   84.791772        C
  165.462867    1.230000   94.791772        C
  165.462867    1.230000  104.791772        C
  191.027938    1.230000   14.791772        C
  191.027938    1.230000   24.791772        C
  191.027938    1.230000   34.791772        C
  191.027938    1.230000   44.791772        C
  191.027938    1.230000   54.791772        C
  191.027938    1.230000   64.791772        C
  191.027938    1.230000   74.791772        C
  191.027938    1.230000   84.791772        C
  191.027938    1.230000   94.791772        C
  191.027938    1.230000  104.791772        C
   16.333217    1.230000   14.791772        C
   16.333217    1.230000   24.791772        C
   16.333217    1.230000   34.791772        C
   16.333217    1.230000   44.791772        C
   16.333217    1.230000   54.791772        C
   16.333217    1.230000   64.791772        C
   16.333217    1.230000   74.791772        C
   16.333217    1.230000   84.791772        C
   16.333217    1.230000   94.791772        C
   16.333217    1.230000  104.791772        C
   41.898288    1.230000   14.791772        C
   41.898288    1.230000   24.791772        C
   41.898288    1.230000   34.791772        C
   41.898288    1.230000   44.791772        C
   41.898288    1.230000   54.791772        C
   41.898288    1.230000   64.791772        C
   41.898288    1.230000   74.791772        C
   41.898288    1.230000   84.791772        C
   41.898288    1.230000   94.791772        C
   41.898288    1.230000  104.791772        C
   67.463359    1.230000   14.791772        C
   67.463359    1.230000   24.791772        C
   67.463359    1.230000   34.791772        C
   67.463359    1.230000   44.791772        C
   67.463359    1.230000   54.791772        C
   67.463359    1.230000   64.791772        C
   67.463359    1.230000   74.791772        C
   67.463359    1.230000   84.791772        C
   67.463359    1.230000   94.791772        C
   67.463359    1.230000  104.791772        C
   93.028431    1.230000   14.791772        C
   93.028431    1.230000   24.791772        C
   93.028431    1.230000   34.791772        C
   93.028431    1.230000   44.791772        C
   93.028431    1.230000   54.791772        C
   93.028431    1.230000   64.791772        C
   93.028431    1.230000   74.791772        C
   93.028431    1.230000   84.791772        C
   93.028431    1.230000   94.791772        C
   93.028431    1.230000  104.791772        C
  118.593502    1.230000   14.791772        C
  118.593502    1.230000   24.791772        C
  118.593502    1.230000   34.791772        C
  118.593502    1.230000   44.791772        C
  118.593502    1.230000   54.791772        C
  118.593502    1.230000   64.791772        C
  118.593502    1.230000   74.791772        C
  118.593502    1.230000   84.791772        C
  118.593502    1.230000   94.791772        C
  118.593502    1.230000  104.791772        C
  144.158573    1.230000   14.791772        C
  144.158573    1.230000   24.791772        C
  144.158573    1.230000   34.791772        C
  144.158573    1.230000   44.791772        C
  144.158573    1.230000   54.791772        C
  144.158573    1.230000   64.791772        C
  144.158573    1.230000   74.791772        C
  144.158573    1.230000   84.791772        C
  144.158573    1.230000   94.791772        C
  144.158573    1.230000  104.791772        C
  169.723644    1.230000   14.791772        C
  169.723644    1.230000   24.791772        C
  169.723644    1.230000   34.791772        C
  169.723644    1.230000   44.791772        C
  169.723644    1.230000   54.791772        C
  169.723644    1.230000   64.791772        C
  169.723644    1.230000   74.791772        C
  169.723644    1.230000   84.791772        C
  169.723644    1.230000   94.791772        C
  169.723644    1.230000  104.791772        C
  195.288715    1.230000   14.791772        C
  195.288715    1.230000   24.791772        C
  195.288715    1.230000   34.791772        C
  195.288715    1.230000   44.791772        C
  195.288715    1.230000   54.791772        C
  195.288715    1.230000   64.791772        C
  195.288715    1.230000   74.791772        C
  195.288715    1.230000   84.791772        C
  195.288715    1.230000   94.791772        C
  195.288715    1.230000  104.791772        C
   20.593994    1.230000   14.791772        C
   20.593994    1.230000   24.791772        C
   20.593994    1.230000   34.791772        C
   20.593994    1.230000   44.791772        C
   20.593994    1.230000   54.791772        C
   20.593994    1.230000   64.791772        C
   20.593994    1.230000   74.791772        C
   20.593994    1.230000   84.791772        C
   20.593994    1.230000   94.791772        C
   20.593994    1.230000  104.791772        C
   46.159065    1.230000   14.791772        C
   46.159065    1.230000   24.791772        C
   46.159065    1.230000   34.791772        C
   46.159065    1.230000   44.791772        C
   46.159065    1.230000   54.791772        C
   46.159065    1.230000   64.791772        C
   46.159065    1.230000   74.791772        C
   46.159065    1.230000   84.791772        C
   46.159065    1.230000   94.791772        C
   46.159065    1.230000  104.791772        C
   71.724136    1.230000   14.791772        C
   71.724136    1.230000   24.791772        C
   71.724136    1.230000   34.791772        C
   71.724136    1.230000   44.791772        C
   71.724136    1.230000   54.791772        C
   71.724136    1.230000   64.791772        C
   71.724136    1.230000   74.791772        C
   71.724136    1.230000   84.791772        C
   71.724136    1.230000   94.791772        C
   71.724136    1.230000  104.791772        C
   97.289208    1.230000   14.791772        C
   97.289208    1.230000   24.791772        C
   97.289208    1.230000   34.791772        C
   97.289208    1.230000   44.791772        C
   97.289208    1.230000   54.791772        C
   97.289208    1.230000   64.791772        C
   97.289208    1.230000   74.791772        C
   97.289208    1.230000   84.791772        C
   97.289208    1.230000   94.791772        C
   97.289208    1.230000  104.791772        C
  122.854279    1.230000   14.791772        C
  122.854279    1.230000   24.791772        C
  122.854279    1.230000   34.791772        C
  122.854279    1.230000   44.791772        C
  122.854279    1.230000   54.791772        C
  122.854279    1.230000   64.791772        C
  122.854279    1.230000   74.791772        C
  122.854279    1.230000   84.791772        C
  122.854279    1.230000   94.791772        C
  122.854279    1.230000  104.791772        C
  148.419350    1.230000   14.791772        C
  148.419350    1.230000   24.791772        C
  148.419350    1.230000   34.791772        C
  148.419350    1.230000   44.791772        C
  148.419350    1.230000   54.791772        C
  148.419350    1.230000   64.791772        C
  148.419350    1.230000   74.791772        C
  148.419350    1.230000   84.791772        C
  148.419350    1.230000   94.791772        C
  148.419350    1.230000  104.791772        C
  173.984421    1.230000   14.791772        C
  173.984421    1.230000   24.791772        C
  173.984421    1.230000   34.791772        C
  173.984421    1.230000   44.791772        C
  173.984421    1.230000   54.791772        C
  173.984421    1.230000   64.791772        C
  173.984421    1.230000   74.791772        C
  173.984421    1.230000   84.791772        C
  173.984421    1.230000   94.791772        C
  173.984421    1.230000  104.791772        C
  199.549492    1.230000   14.791772        C
  199.549492    1.230000   24.791772        C
  199.549492    1.230000   34.791772        C
  199.549492    1.230000   44.791772        C
  199.549492    1.230000   54.791772        C
  199.549492    1.230000   64.791772        C
  199.549492    1.230000   74.791772        C
  199.549492    1.230000   84.791772        C
  199.549492    1.230000   94.791772        C
  199.549492    1.230000  104.791772        C
   24.854976    1.230000   14.791772        C
   24.854976    1.230000   24.791772        C
   24.854976    1.230000   34.791772        C
   24.854976    1.230000   44.791772        C
   24.854976    1.230000   54.791772        C
   24.854976    1.230000   64.791772        C
   24.854976    1.230000   74.791772        C
   24.854976    1.230000   84.791772        C
   24.854976    1.230000   94.791772        C
   24.854976    1.230000  104.791772        C
   50.420047    1.230000   14.791772        C
   50.420047    1.230000   24.791772        C
   50.420047    1.230000   34.791772        C
   50.420047    1.230000   44.791772        C
   50.420047    1.230000   54.791772        C
   50.420047    1.230000   64.791772        C
   50.420047    1.230000   74.791772        C
   50.420047    1.230000   84.791772        C
   50.420047    1.230000   94.791772        C
   50.420047    1.230000  104.791772        C
   75.985118    1.230000   14.791772        C
   75.985118    1.230000   24.791772        C
   75.985118    1.230000   34.791772        C
   75.985118    1.230000   44.791772        C
   75.985118    1.230000   54.791772        C
   75.985118    1.230000   64.791772        C
   75.985118    1.230000   74.791772        C
   75.985118    1.230000   84.791772        C
   75.985118    1.230000   94.791772        C
   75.985118    1.230000  104.791772        C
  101.550189    1.230000   14.791772        C
  101.550189    1.230000   24.791772        C
  101.550189    1.230000   34.791772        C
  101.550189    1.230000   44.791772        C
  101.550189    1.230000   54.791772        C
  101.550189    1.230000   64.791772        C
  101.550189    1.230000   74.791772        C
  101.550189    1.230000   84.791772        C
  101.550189    1.230000   94.791772        C
  101.550189    1.230000  104.791772        C
  127.115260    1.230000   14.791772        C
  127.115260    1.230000   24.791772        C
  127.115260    1.230000   34.791772        C
  127.115260    1.230000   44.791772        C
  127.115260    1.230000   54.791772        C
  127.115260    1.230000   64.791772        C
  127.115260    1.230000   74.791772        C
  127.115260    1.230000   84.791772        C
  127.115260    1.230000   94.791772        C
  127.115260    1.230000  104.791772        C
  152.680331    1.230000   14.791772        C
  152.680331    1.230000   24.791772        C
  152.680331    1.230000   34.791772        C
  152.680331    1.230000   44.791772        C
  152.680331    1.230000   54.791772        C
  152.680331    1.230000   64.791772        C
  152.680331    1.230000   74.791772        C
  152.680331    1.230000   84.791772        C
  152.680331    1.230000   94.791772        C
  152.680331    1.230000  104.791772        C
  178.245402    1.230000   14.791772        C
  178.245402    1.230000   24.791772        C
  178.245402    1.230000   34.791772        C
  178.245402    1.230000   44.791772        C
  178.245402    1.230000   54.791772        C
  178.245402    1.230000   64.791772        C
  178.245402    1.230000   74.791772        C
  178.245402    1.230000   84.791772        C
  178.245402    1.230000   94.791772        C
  178.245402    1.230000  104.791772        C
  203.810474    1.230000   14.791772        C
  203.810474    1.230000   24.791772        C
  203.810474    1.230000   34.791772        C
  203.810474    1.230000   44.791772        C
  203.810474    1.230000   54.791772        C
  203.810474    1.230000   64.791772        C
  203.810474    1.230000   74.791772        C
  203.810474    1.230000   84.791772        C
  203.810474    1.230000   94.791772        C
  203.810474    1.230000  104.791772        C
    1.420191    0.000000   14.791772        C
    1.420191    0.000000   24.791772        C
    1.420191    0.000000   34.791772        C
    1.420191    0.000000   44.791772        C
    1.420191    0.000000   54.791772        C
    1.420191    0.000000   64.791772        C
    1.420191    0.000000   74.791772        C
    1.420191    0.000000   84.791772        C
    1.420191    0.000000   94.791772        C
    1.420191    0.000000  104.791772        C
   26.985262    0.000000   14.791772        C
   26.985262    0.000000   24.791772        C
   26.985262    0.000000   34.791772        C
   26.985262    0.000000   44.791772        C
   26.985262    0.000000   54.791772        C
   26.985262    0.000000   64.791772        C
   26.985262    0.000000   74.791772        C
   26.985262    0.000000   84.791772        C
   26.985262    0.000000   94.791772        C
   26.985262    0.000000  104.791772        C
   52.550333    0.000000   14.791772        C
   52.550333    0.000000   24.791772        C
   52.550333    0.000000   34.791772        C
   52.550333    0.000000   44.791772        C
   52.550333    0.000000   54.791772        C
   52.550333    0.000000   64.791772        C
   52.550333    0.000000   74.791772        C
   52.550333    0.000000   84.791772        C
   52.550333    0.000000   94.791772        C
   52.550333    0.000000  104.791772        C
   78.115404    0.000000   14.791772        C
   78.115404    0.000000   24.791772        C
   78.115404    0.000000   34.791772        C
   78.115404    0.000000   44.791772        C
   78.115404    0.000000   54.791772        C
   78.115404    0.000000   64.791772        C
   78.115404    0.000000   74.791772        C
   78.115404    0.000000   84.791772        C
   78.115404    0.000000   94.791772        C
   78.115404    0.000000  104.791772        C
  103.680475    0.000000   14.791772        C
  103.680475    0.000000   24.791772        C
  103.680475    0.000000   34.791772        C
  103.680475    0.000000   44.791772        C
  103.680475    0.000000   54.791772        C
  103.680475    0.000000   64.791772        C
  103.680475    0.000000   74.791772        C
  103.680475    0.000000   84.791772        C
  103.680475    0.000000   94.791772        C
  103.680475    0.000000  104.791772        C
  129.245546    0.000000   14.791772        C
  129.245546    0.000000   24.791772        C
  129.245546    0.000000   34.791772        C
  129.245546    0.000000   44.791772        C
  129.245546    0.000000   54.791772        C
  129.245546    0.000000   64.791772        C
  129.245546    0.000000   74.791772        C
  129.245546    0.000000   84.791772        C
  129.245546    0.000000   94.791772        C
  129.245546    0.000000  104.791772        C
  154.810618    0.000000   14.791772        C
  154.810618    0.000000   24.791772        C
  154.810618    0.000000   34.791772        C
  154.810618    0.000000   44.791772        C
  154.810618    0.000000   54.791772        C
  154.810618    0.000000   64.791772        C
  154.810618    0.000000   74.791772        C
  154.810618    0.000000   84.791772        C
  154.810618    0.000000   94.791772        C
  154.810618    0.000000  104.791772        C
  180.375689    0.000000   14.791772        C
  180.375689    0.000000   24.791772        C
  180.375689    0.000000   34.791772        C
  180.375689    0.000000   44.791772        C
  180.375689    0.000000   54.791772        C
  180.375689    0.000000   64.791772        C
  180.375689    0.000000   74.791772        C
  180.375689    0.000000   84.791772        C
  180.375689    0.000000   94.791772        C
  180.375689    0.000000  104.791772        C
    5.681172    0.000000   14.791772        C
    5.681172    0.000000   24.791772        C
    5.681172    0.000000   34.791772        C
    5.681172    0.000000   44.791772        C
    5.681172    0.000000   54.791772        C
    5.681172    0.000000   64.791772        C
    5.681172    0.000000   74.791772        C
    5.681172    0.000000   84.791772        C
    5.681172    0.000000   94.791772        C
    5.681172    0.000000  104.791772        C
   31.246243    0.000000   14.791772        C
   31.246243    0.000000   24.791772        C
   31.246243    0.000000   34.791772        C
   31.246243    0.000000   44.791772        C
   31.246243    0.000000   54.791772        C
   31.246243    0.000000   64.791772        C
   31.246243    0.000000   74.791772        C
   31.246243    0.000000   84.791772        C
   31.246243    0.000000   94.791772        C
   31.246243    0.000000  104.791772        C
   56.811315    0.000000   14.791772        C
   56.811315    0.000000   24.791772        C
   56.811315    0.000000   34.791772        C
   56.811315    0.000000   44.791772        C
   56.811315    0.000000   54.791772        C
   56.811315    0.000000   64.791772        C
   56.811315    0.000000   74.791772        C
   56.811315    0.000000   84.791772        C
   56.811315    0.000000   94.791772        C
   56.811315    0.000000  104.791772        C
   82.376386    0.000000   14.791772        C
   82.376386    0.000000   24.791772        C
   82.376386    0.000000   34.791772        C
   82.376386    0.000000   44.791772        C
   82.376386    0.000000   54.791772        C
   82.376386    0.000000   64.791772        C
   82.376386    0.000000   74.791772        C
   82.376386    0.000000   84.791772        C
   82.376386    0.000000   94.791772        C
   82.376386    0.000000  104.791772        C
  107.941457    0.000000   14.791772        C
  107.941457    0.000000   24.791772        C
  107.941457    0.000000   34.791772        C
  107.941457    0.000000   44.791772        C
  107.941457    0.000000   54.791772        C
  107.941457    0.000000   64.791772        C
  107.941457    0.000000   74.791772        C
  107.941457    0.000000   84.791772        C
  107.941457    0.000000   94.791772        C
  107.941457    0.000000  104.791772        C
  133.506528    0.000000   14.791772        C
  133.506528    0.000000   24.791772        C
  133.506528    0.000000   34.791772        C
  133.506528    0.000000   44.791772        C
  133.506528    0.000000   54.791772        C
  133.506528    0.000000   64.791772        C
  133.506528    0.000000   74.791772        C
  133.506528    0.000000   84.791772        C
  133.506528    0.000000   94.791772        C
  133.506528    0.000000  104.791772        C
  159.071599    0.000000   14.791772        C
  159.071599    0.000000   24.791772        C
  159.071599    0.000000   34.791772        C
  159.071599    0.000000   44.791772        C
  159.071599    0.000000   54.791772        C
  159.071599    0.000000   64.791772        C
  159.071599    0.000000   74.791772        C
  159.071599    0.000000   84.791772        C
  159.071599    0.000000   94.791772        C
  159.071599    0.000000  104.791772        C
  184.636670    0.000000   14.791772        C
  184.636670    0.000000   24.791772        C
  184.636670    0.000000   34.791772        C
  184.636670    0.000000   44.791772        C
  184.636670    0.000000   54.791772        C
  184.636670    0.000000   64.791772        C
  184.636670    0.000000   74.791772        C
  184.636670    0.000000   84.791772        C
  184.636670    0.000000   94.791772        C
  184.636670    0.000000  104.791772        C
    9.941949    0.000000   14.791772        C
    9.941949    0.000000   24.791772        C
    9.941949    0.000000   34.791772        C
    9.941949    0.000000   44.791772        C
    9.941949    0.000000   54.791772        C
    9.941949    0.000000   64.791772        C